    3
MD iter: 0
    O      0.02082565     -0.87107084     -0.05216553      6.60613912      7.22697173     -0.51993648     -4.23611429
    H      0.58262696     -1.06953847      0.80117174      0.70553967     38.73975490     -3.11082508     50.00664635
    H     -0.91339944     -0.97823520      0.02737002      0.68832121   -153.52528810     11.36894323     17.27528798
    3
MD iter: 1
    O      0.02470141     -0.87134245     -0.05416289      6.59584234      7.76800413     -0.63823370     -3.64625816
    H      0.59940418     -1.07052179      0.82341546      0.70627563     27.57155562     -0.61895615     37.97929816
    H     -0.99173514     -0.97293793      0.03685027      0.69788203   -150.95027213     10.75598155     19.93398872
    3
MD iter: 2
    O      0.02859365     -0.87170907     -0.05581179      6.58309365      7.53139152     -0.85505028     -2.89451512
    H      0.61019852     -1.07015743      0.83915104      0.70669805     15.23525436      2.15104683     24.53376447
    H     -1.06434971     -0.96747922      0.04730401      0.71020830   -134.85586770     11.42966259     21.43963544
    3
MD iter: 3
    O      0.03223280     -0.87219750     -0.05705741      6.57044503      6.88660980     -1.10360379     -2.06649717
    H      0.61463943     -1.06837074      0.84794923      0.70645932      2.46739221      4.98776063     10.60982894
    H     -1.12659101     -0.96150826      0.05828990      0.72309565   -111.84697845     12.54070828     22.21221449
    3
MD iter: 4
    O      0.03548026     -0.87281268     -0.05787829      6.56005274      6.02481099     -1.35136575     -1.21940876
    H      0.61266591     -1.06516967      0.84976087      0.70523464    -10.16622466      7.74444218     -3.10129908
    H     -1.17619669     -0.95493851      0.06951622      0.73471262    -85.52546586     13.71921430     22.46909105
    3
MD iter: 5
    O      0.03825761     -0.87354887     -0.05827682      6.55314269      5.02554531     -1.58139597     -0.39852386
    H      0.60447321     -1.06062630      0.84484793      0.70286674    -22.16283198     10.29396846    -15.96965392
    H     -1.21211648     -0.94778905      0.08075899      0.74399056    -57.65758519     14.82324329     22.29938309
    3
MD iter: 6
    O      0.04050581     -0.87439407     -0.05827681      6.55007594      3.90719976     -1.78213195      0.35039723
    H      0.59050308     -1.05487570      0.83379121      0.69944740    -33.00196669     12.50004477    -27.28953879
    H     -1.23385428     -0.94011527      0.09181561      0.75047666    -29.05583917     15.80544395     21.72420178
    3
MD iter: 7
    O      0.04216481     -0.87533100     -0.05792642      6.55059098      2.65434819     -1.94229733      0.97167988
    H      0.57147124     -1.04812625      0.81755839      0.69534205    -42.07374879     14.19609341    -36.16102794
    H     -1.24117232     -0.93198361      0.10248319      0.75406698     -0.08509512     16.65329179     20.72789812
    3
MD iter: 8
    O      0.04316016     -0.87633637     -0.05730513      6.55402355      1.23104133     -2.04890349      1.39463338
    H      0.54842933     -1.04067960      0.79763019      0.69116359    -48.64204149     15.17677316    -41.42040054
    H     -1.23393937     -0.92346198      0.11254350      0.75481286     29.08949019     17.36583101     19.26952708
    3
MD iter: 9
    O      0.04339586     -0.87737990     -0.05653178      6.55954348     -0.40473388     -2.08754261      1.53580247
    H      0.52282920     -1.03294948      0.77613799      0.68766894    -51.88185746     15.21359936    -41.68636068
    H     -1.21208283     -0.91461778      0.12175272      0.75278758     58.31021986     17.94270745     17.29330757
    3
MD iter: 10
    O      0.04275542     -0.87842391     -0.05576933      6.56632197     -2.27746999     -2.04587535      1.31621963
    H      0.49654747     -1.02546600      0.75594382      0.68559845    -51.05891845     14.11475930    -35.65284515
    H     -1.17562915     -0.90551927      0.12983681      0.74807959     87.23182969     18.37974901     14.74741229
