 DBCSR| CPU Multiplication driver                                           BLAS (U)
 DBCSR| Multrec recursion limit                                              512 (U)
 DBCSR| Multiplication stack size                                           1000 (D)
 DBCSR| Maximum elements for images                                    UNLIMITED (U)
 DBCSR| Multiplicative factor virtual images                                   1 (U)
 DBCSR| Use multiplication densification                                       T (D)
 DBCSR| Multiplication size stacks                                             3 (U)
 DBCSR| Use memory pool for CPU allocation                                     F (U)
 DBCSR| Number of 3D layers                                               SINGLE (U)
 DBCSR| Use MPI memory allocation                                              F (U)
 DBCSR| Use RMA algorithm                                                      F (U)
 DBCSR| Use Communication thread                                               T (U)
 DBCSR| Communication thread load                                             87 (D)
 DBCSR| MPI: My process id                                                     0
 DBCSR| MPI: Number of processes                                               1
 DBCSR| OMP: Current number of threads                                         1
 DBCSR| OMP: Max number of threads                                             1
 DBCSR| Split modifier for TAS multiplication algorithm                  1.0E+00 (U)


  **** **** ******  **  PROGRAM STARTED AT               2026-09-12 02:59:40.659
 ***** ** ***  *** **   PROGRAM STARTED ON                       <host>
 **    ****   ******    PROGRAM STARTED BY                                 <user>
 ***** **    ** ** **   PROGRAM PROCESS ID                                 67132
  **** **  *******  **  PROGRAM STARTED IN /home/<user>/adit/examples/pre
                                           p_stage1_cp2k_dftu_h2o

 CP2K| version string:                                       CP2K version 2026.2
 CP2K| source code revision number:                                      f2f8b68
 CP2K| cp2kflags: omp libint fftw3 libxc elpa parallel scalapack mpi_f08 cosma l
 CP2K|            ibxs libxsmm plumed2 spglib sirius libtorch hdf5 trexio
 CP2K| is freely available from                            https://www.cp2k.org/
 CP2K| Program compiled at                                   2026-08-11 12:21:00
 CP2K| Program compiled on                                                      
 CP2K| Program compiled for                                               x86_64
 CP2K| Data directory path      /home/<user>/miniforge3/envs/cp2k/share/cp2k/data
 CP2K| Input file name                                                  cp2k.inp

 GLOBAL| Force Environment number                                              1
 GLOBAL| Basis set file name                                         BASIS_adit
 GLOBAL| Potential file name                                     POTENTIAL_adit
 GLOBAL| MM Potential file name                                     MM_POTENTIAL
 GLOBAL| Coordinate file name                                      __STD_INPUT__
 GLOBAL| Method name                                                        CP2K
 GLOBAL| Project name                                                      adit
 GLOBAL| Run type                                                   ENERGY_FORCE
 GLOBAL| FFT library                                                       FFTW3
 GLOBAL| Diagonalization library                                            ELPA
 GLOBAL| Cholesky decomposition library                                ScaLAPACK
 GLOBAL| DGEMM library                                                      BLAS
 GLOBAL| Minimum number of eigenvectors for ELPA usage                        64
 GLOBAL| Orthonormality check for eigenvectors                          DISABLED
 GLOBAL| Matrix multiplication library                                     COSMA
 GLOBAL| All-to-all communication in single precision                          F
 GLOBAL| FFTs using library dependent lengths                                  F
 GLOBAL| Grid backend                                                       AUTO
 GLOBAL| Global print level                                               MEDIUM
 GLOBAL| MPI I/O enabled                                                       T
 GLOBAL| Total number of message passing processes                             1
 GLOBAL| Number of distributed systems (nodes)                                 1
 GLOBAL| Number of threads for this process                                    1
 GLOBAL| This output is from process                                           0
 GLOBAL| OpenMP stack size per thread (OMP_STACKSIZE)                    default
 GLOBAL| CPU model name                Intel(R) Core(TM) i7-1065G7 CPU @ 1.30GHz
 GLOBAL| CPUID                                                              1003
 GLOBAL| Compiled for CPUID                                                 1002

 *** HINT in environment.F:970 :: The compiler target (x86_avx2) used to ***
 *** build this binary does not enable all instruction-set extensions    ***
 *** available on this CPU (x86_avx512). Consider reconfiguring and      ***
 *** rebuilding CP2K for this target system to enable them.              ***


 MEMORY| system memory details [Kb]
 MEMORY|                        rank 0           min           max       average
 MEMORY| MemTotal              7968380       7968380       7968380       7968380
 MEMORY| MemFree                 78728         78728         78728         78728
 MEMORY| Buffers                679940        679940        679940        679940
 MEMORY| Cached                4299492       4299492       4299492       4299492
 MEMORY| Slab                   439288        439288        439288        439288
 MEMORY| SReclaimable           332808        332808        332808        332808
 MEMORY| MemLikelyFree         5390968       5390968       5390968       5390968


 *** Fundamental physical constants (SI units) ***

 *** Literature: B. J. Mohr and B. N. Taylor,
 ***             CODATA recommended values of the fundamental physical
 ***             constants: 2006, Web Version 5.1
 ***             http://physics.nist.gov/constants

 Speed of light in vacuum [m/s]                             2.99792458000000E+08
 Magnetic constant or permeability of vacuum [N/A**2]       1.25663706143592E-06
 Electric constant or permittivity of vacuum [F/m]          8.85418781762039E-12
 Planck constant (h) [J*s]                                  6.62606896000000E-34
 Planck constant (h-bar) [J*s]                              1.05457162825177E-34
 Elementary charge [C]                                      1.60217648700000E-19
 Electron mass [kg]                                         9.10938215000000E-31
 Electron g factor [ ]                                     -2.00231930436220E+00
 Proton mass [kg]                                           1.67262163700000E-27
 Fine-structure constant                                    7.29735253760000E-03
 Rydberg constant [1/m]                                     1.09737315685270E+07
 Avogadro constant [1/mol]                                  6.02214179000000E+23
 Boltzmann constant [J/K]                                   1.38065040000000E-23
 Atomic mass unit [kg]                                      1.66053878200000E-27
 Bohr radius [m]                                            5.29177208590000E-11

 *** Conversion factors ***

 [u] -> [a.u.]                                              1.82288848426455E+03
 [Angstrom] -> [Bohr] = [a.u.]                              1.88972613288564E+00
 [a.u.] = [Bohr] -> [Angstrom]                              5.29177208590000E-01
 [a.u.] -> [s]                                              2.41888432650478E-17
 [a.u.] -> [fs]                                             2.41888432650478E-02
 [a.u.] -> [J]                                              4.35974393937059E-18
 [a.u.] -> [N]                                              8.23872205491840E-08
 [a.u.] -> [K]                                              3.15774647902944E+05
 [a.u.] -> [kJ/mol]                                         2.62549961709828E+03
 [a.u.] -> [kcal/mol]                                       6.27509468713739E+02
 [a.u.] -> [Pa]                                             2.94210107994716E+13
 [a.u.] -> [bar]                                            2.94210107994716E+08
 [a.u.] -> [atm]                                            2.90362800883016E+08
 [a.u.] -> [eV]                                             2.72113838565563E+01
 [a.u.] -> [Hz]                                             6.57968392072181E+15
 [a.u.] -> [1/cm] (wave numbers)                            2.19474631370540E+05
 [a.u./Bohr**2] -> [1/cm]                                   5.14048714338585E+03
 

 CELL| Volume [angstrom^3]:                                           512.000000
 CELL| Vector a [angstrom]:       8.000     0.000     0.000   |a| =     8.000000
 CELL| Vector b [angstrom]:       0.000     8.000     0.000   |b| =     8.000000
 CELL| Vector c [angstrom]:       0.000     0.000     8.000   |c| =     8.000000
 CELL| Angle (b,c), alpha [degree]:                                    90.000000
 CELL| Angle (a,c), beta  [degree]:                                    90.000000
 CELL| Angle (a,b), gamma [degree]:                                    90.000000
 CELL| Numerically orthorhombic:                                             YES
 CELL| Periodicity                                                          NONE

 CELL_REF| Volume [angstrom^3]:                                       512.000000
 CELL_REF| Vector a [angstrom     8.000     0.000     0.000   |a| =     8.000000
 CELL_REF| Vector b [angstrom     0.000     8.000     0.000   |b| =     8.000000
 CELL_REF| Vector c [angstrom     0.000     0.000     8.000   |c| =     8.000000
 CELL_REF| Angle (b,c), alpha [degree]:                                90.000000
 CELL_REF| Angle (a,c), beta  [degree]:                                90.000000
 CELL_REF| Angle (a,b), gamma [degree]:                                90.000000
 CELL_REF| Numerically orthorhombic:                                         YES
 CELL_REF| Periodicity                                                      NONE

 GENERATE|  Preliminary Number of Bonds generated:                             0
 GENERATE|  Achieved consistency in connectivity generation.

 *******************************************************************************
 *******************************************************************************
 **                                                                           **
 **     #####                         ##              ##                      **
 **    ##   ##            ##          ##              ##                      **
 **   ##     ##                       ##            ######                    **
 **   ##     ##  ##   ##  ##   #####  ##  ##   ####   ##    #####    #####    **
 **   ##     ##  ##   ##  ##  ##      ## ##   ##      ##   ##   ##  ##   ##   **
 **   ##  ## ##  ##   ##  ##  ##      ####     ###    ##   ######   ######    **
 **    ##  ###   ##   ##  ##  ##      ## ##      ##   ##   ##       ##        **
 **     #######   #####   ##   #####  ##  ##  ####    ##    #####   ##        **
 **           ##                                                    ##        **
 **                                                                           **
 **                                                ... make the atoms dance   **
 **                                                                           **
 **            Copyright (C) by CP2K developers group (2000-2026)             **
 **                      J. Chem. Phys. 152, 194103 (2020)                    **
 **                                                                           **
 *******************************************************************************

 DFT| Spin restricted Kohn-Sham (RKS) calculation                            RKS
 DFT| Multiplicity                                                             1
 DFT| Number of spin states                                                    1
 DFT| Charge                                                                   0
 DFT| Self-interaction correction (SIC)                                       NO
 DFT| Cutoffs: density                                              1.000000E-10
 DFT|          gradient                                             1.000000E-10
 DFT|          tau                                                  1.000000E-10
 DFT|          cutoff_smoothing_range                               0.000000E+00
 DFT| XC density smoothing                                                  NONE
 DFT| XC derivatives                                                          PW

 DFT+U| Method                                                          MULLIKEN
 DFT+U| Check atomic kind information for details

 FUNCTIONAL| PBE:
 FUNCTIONAL| J.P.Perdew, K.Burke, M.Ernzerhof, Phys. Rev. Letter, vol. 77, n 18,
 FUNCTIONAL|  pp. 3865-3868, (1996) {spin unpolarized}                          


 QS| Method:                                                                 GPW
 QS| Density plane wave grid type                        NON-SPHERICAL FULLSPACE
 QS| Number of grid levels:                                                    4
 QS| Density cutoff [a.u.]:                                                140.0
 QS| Multi grid cutoff [a.u.]: 1) grid level                               140.0
 QS|                           2) grid level                                46.7
 QS|                           3) grid level                                15.6
 QS|                           4) grid level                                 5.2
 QS| Grid level progression factor:                                          3.0
 QS| Relative density cutoff [a.u.]:                                        20.0
 QS| Interaction thresholds: eps_pgf_orb:                                1.0E-05
 QS|                         eps_filter_matrix:                          0.0E+00
 QS|                         eps_core_charge:                            1.0E-12
 QS|                         eps_rho_gspace:                             1.0E-10
 QS|                         eps_rho_rspace:                             1.0E-10
 QS|                         eps_gvg_rspace:                             1.0E-05
 QS|                         eps_ppl:                                    1.0E-02
 QS|                         eps_ppnl:                                   1.0E-07


 ATOMIC KIND INFORMATION

  1. Atomic kind: O                                     Number of atoms:       1

     Orbital Basis Set                                        DZVP-MOLOPT-SR-GTH

       Number of orbital shell sets:                                           1
       Number of orbital shells:                                               5
       Number of primitive Cartesian functions:                                5
       Number of Cartesian basis functions:                                   14
       Number of spherical basis functions:                                   13
       Norm type:                                                              2

       Normalised Cartesian orbitals:

                        Set   Shell   Orbital            Exponent    Coefficient

                          1       1    2s               10.389228       0.396646
                                                         3.849621       0.208811
                                                         1.388401      -0.301641
                                                         0.496955      -0.274061
                                                         0.162492      -0.033677

                          1       2    3s               10.389228       0.303673
                                                         3.849621       0.240943
                                                         1.388401      -0.313066
                                                         0.496955      -0.043055
                                                         0.162492       0.213991

                          1       3    3px              10.389228      -1.530415
                                                         3.849621      -1.371928
                                                         1.388401      -0.761951
                                                         0.496955      -0.253695
                                                         0.162492      -0.035541
                          1       3    3py              10.389228      -1.530415
                                                         3.849621      -1.371928
                                                         1.388401      -0.761951
                                                         0.496955      -0.253695
                                                         0.162492      -0.035541
                          1       3    3pz              10.389228      -1.530415
                                                         3.849621      -1.371928
                                                         1.388401      -0.761951
                                                         0.496955      -0.253695
                                                         0.162492      -0.035541

                          1       4    4px              10.389228      -0.565392
                                                         3.849621      -0.038231
                                                         1.388401      -0.382373
                                                         0.496955       0.179070
                                                         0.162492       0.122714
                          1       4    4py              10.389228      -0.565392
                                                         3.849621      -0.038231
                                                         1.388401      -0.382373
                                                         0.496955       0.179070
                                                         0.162492       0.122714
                          1       4    4pz              10.389228      -0.565392
                                                         3.849621      -0.038231
                                                         1.388401      -0.382373
                                                         0.496955       0.179070
                                                         0.162492       0.122714

                          1       5    4dx2             10.389228       1.867377
                                                         3.849621       0.670994
                                                         1.388401       1.353441
                                                         0.496955       0.273538
                                                         0.162492       0.006620
                          1       5    4dxy             10.389228       3.234392
                                                         3.849621       1.162195
                                                         1.388401       2.344229
                                                         0.496955       0.473781
                                                         0.162492       0.011466
                          1       5    4dxz             10.389228       3.234392
                                                         3.849621       1.162195
                                                         1.388401       2.344229
                                                         0.496955       0.473781
                                                         0.162492       0.011466
                          1       5    4dy2             10.389228       1.867377
                                                         3.849621       0.670994
                                                         1.388401       1.353441
                                                         0.496955       0.273538
                                                         0.162492       0.006620
                          1       5    4dyz             10.389228       3.234392
                                                         3.849621       1.162195
                                                         1.388401       2.344229
                                                         0.496955       0.473781
                                                         0.162492       0.011466
                          1       5    4dz2             10.389228       1.867377
                                                         3.849621       0.670994
                                                         1.388401       1.353441
                                                         0.496955       0.273538
                                                         0.162492       0.006620

       Atomic covalent radius [Angstrom]:                                  0.730

       Atomic van der Waals radius [Angstrom]:                             1.520

     GTH Potential information for                                    GTH-PBE-q6

       Description:                       Goedecker-Teter-Hutter pseudopotential
                                           Goedecker et al., PRB 54, 1703 (1996)
                                          Hartwigsen et al., PRB 58, 3641 (1998)
                                                      Krack, TCA 114, 145 (2005)

       Gaussian exponent of the core charge distribution:               8.360253
       Electronic configuration (s p d ...):                               2   4

       Parameters of the local part of the GTH pseudopotential:

                          rloc        C1          C2          C3          C4
                        0.244554  -16.667215    2.487311

       Parameters of the non-local part of the GTH pseudopotential:

                   l      r(l)      h(i,j,l)

                   0    0.220956   18.337458
                   1    0.211332

     A DFT+U correction is applied to atoms of this atomic kind:
       Angular quantum momentum number L:                                      1
       U(eff) = (U - J) value in [eV]:                                     2.000

  2. Atomic kind: H                                     Number of atoms:       2

     Orbital Basis Set                                        DZVP-MOLOPT-SR-GTH

       Number of orbital shell sets:                                           1
       Number of orbital shells:                                               3
       Number of primitive Cartesian functions:                                5
       Number of Cartesian basis functions:                                    5
       Number of spherical basis functions:                                    5
       Norm type:                                                              2

       Normalised Cartesian orbitals:

                        Set   Shell   Orbital            Exponent    Coefficient

                          1       1    2s               10.068468      -0.133023
                                                         2.680223      -0.177618
                                                         0.791502      -0.258419
                                                         0.239116      -0.107525
                                                         0.082193      -0.014019

                          1       2    3s               10.068468       0.344673
                                                         2.680223       1.819821
                                                         0.791502      -0.999069
                                                         0.239116       0.017430
                                                         0.082193       0.082660

                          1       3    3px              10.068468       0.155326
                                                         2.680223       0.367157
                                                         0.791502       0.311480
                                                         0.239116       0.080105
                                                         0.082193       0.033440
                          1       3    3py              10.068468       0.155326
                                                         2.680223       0.367157
                                                         0.791502       0.311480
                                                         0.239116       0.080105
                                                         0.082193       0.033440
                          1       3    3pz              10.068468       0.155326
                                                         2.680223       0.367157
                                                         0.791502       0.311480
                                                         0.239116       0.080105
                                                         0.082193       0.033440

       Atomic covalent radius [Angstrom]:                                  0.320

       Atomic van der Waals radius [Angstrom]:                             1.090

     GTH Potential information for                                    GTH-PBE-q1

       Description:                       Goedecker-Teter-Hutter pseudopotential
                                           Goedecker et al., PRB 54, 1703 (1996)
                                          Hartwigsen et al., PRB 58, 3641 (1998)
                                                      Krack, TCA 114, 145 (2005)

       Gaussian exponent of the core charge distribution:              12.500000
       Electronic configuration (s p d ...):                                   1

       Parameters of the local part of the GTH pseudopotential:

                          rloc        C1          C2          C3          C4
                        0.200000   -4.178900    0.724463


 MOLECULE KIND INFORMATION


 All atoms are their own molecule, skipping detailed information


 TOTAL NUMBERS AND MAXIMUM NUMBERS

  Total number of            - Atomic kinds:                                   2
                             - Atoms:                                          3
                             - Shell sets:                                     3
                             - Shells:                                        11
                             - Primitive Cartesian functions:                 15
                             - Cartesian basis functions:                     24
                             - Spherical basis functions:                     23

  Maximum angular momentum of- Orbital basis functions:                        2
                             - Local part of the GTH pseudopotential:          2
                             - Non-local part of the GTH pseudopotential:      0


 MODULE QUICKSTEP: ATOMIC COORDINATES IN ANGSTROM

   Atom Kind Element         X             Y             Z       Z(eff)     Mass
      1    1 O     8      4.000000      3.500000      4.000000   6.0000  15.9994
      2    2 H     1      4.000000      4.500000      4.783064   1.0000   1.0079
      3    2 H     1      4.000000      4.500000      3.216936   1.0000   1.0079



 SCF PARAMETERS         Density guess:                                    ATOMIC
                        --------------------------------------------------------
                        max_scf:                                              50
                        max_scf_history:                                       0
                        max_diis:                                              4
                        --------------------------------------------------------
                        eps_scf:                                        1.00E-05
                        eps_scf_history:                                0.00E+00
                        eps_diis:                                       1.00E-01
                        eps_eigval:                                     1.00E-05
                        --------------------------------------------------------
                        level_shift [a.u.]:                             0.000000
                        --------------------------------------------------------
                        Mixing method:                           DIRECT_P_MIXING
                        --------------------------------------------------------
                        No outer SCF

 PW_GRID| Information for grid number                                          1
 PW_GRID| Cutoff [a.u.]                                                    280.0
 PW_GRID| spherical cutoff:                                                   NO
 PW_GRID|   Bounds   1            -60      59                Points:         120
 PW_GRID|   Bounds   2            -60      59                Points:         120
 PW_GRID|   Bounds   3            -60      59                Points:         120
 PW_GRID| Volume element (a.u.^3)  0.2000E-02     Volume (a.u.^3)      3455.1473
 PW_GRID| Grid span                                                    FULLSPACE

 PW_GRID| Information for grid number                                          2
 PW_GRID| Number of the reference grid                                         1
 PW_GRID| Cutoff [a.u.]                                                    140.0
 PW_GRID| spherical cutoff:                                                   NO
 PW_GRID|   Bounds   1            -40      40                Points:          81
 PW_GRID|   Bounds   2            -40      40                Points:          81
 PW_GRID|   Bounds   3            -40      40                Points:          81
 PW_GRID| Volume element (a.u.^3)  0.6501E-02     Volume (a.u.^3)      3455.1473
 PW_GRID| Grid span                                                    FULLSPACE

 PW_GRID| Information for grid number                                          3
 PW_GRID| Number of the reference grid                                         2
 PW_GRID| Cutoff [a.u.]                                                     46.7
 PW_GRID| spherical cutoff:                                                   NO
 PW_GRID|   Bounds   1            -24      23                Points:          48
 PW_GRID|   Bounds   2            -24      23                Points:          48
 PW_GRID|   Bounds   3            -24      23                Points:          48
 PW_GRID| Volume element (a.u.^3)  0.3124E-01     Volume (a.u.^3)      3455.1473
 PW_GRID| Grid span                                                    FULLSPACE

 PW_GRID| Information for grid number                                          4
 PW_GRID| Number of the reference grid                                         2
 PW_GRID| Cutoff [a.u.]                                                     15.6
 PW_GRID| spherical cutoff:                                                   NO
 PW_GRID|   Bounds   1            -13      13                Points:          27
 PW_GRID|   Bounds   2            -13      13                Points:          27
 PW_GRID|   Bounds   3            -13      13                Points:          27
 PW_GRID| Volume element (a.u.^3)  0.1755         Volume (a.u.^3)      3455.1473
 PW_GRID| Grid span                                                    FULLSPACE

 PW_GRID| Information for grid number                                          5
 PW_GRID| Number of the reference grid                                         2
 PW_GRID| Cutoff [a.u.]                                                      5.2
 PW_GRID| spherical cutoff:                                                   NO
 PW_GRID|   Bounds   1             -7       7                Points:          15
 PW_GRID|   Bounds   2             -7       7                Points:          15
 PW_GRID|   Bounds   3             -7       7                Points:          15
 PW_GRID| Volume element (a.u.^3)   1.024         Volume (a.u.^3)      3455.1473
 PW_GRID| Grid span                                                    FULLSPACE

 POISSON| Solver                                          Martyna-Tuckerman (MT)
 POISSON| MT| Alpha                                                        7.000
 POISSON| MT| Relative cutoff                                                2.0
 POISSON| Periodicity                                                       NONE

 RS_GRID| Information for grid number                                          2
 RS_GRID|   Bounds   1            -40      40                Points:          81
 RS_GRID|   Bounds   2            -40      40                Points:          81
 RS_GRID|   Bounds   3            -40      40                Points:          81

 RS_GRID| Information for grid number                                          3
 RS_GRID|   Bounds   1            -24      23                Points:          48
 RS_GRID|   Bounds   2            -24      23                Points:          48
 RS_GRID|   Bounds   3            -24      23                Points:          48

 RS_GRID| Information for grid number                                          4
 RS_GRID|   Bounds   1            -13      13                Points:          27
 RS_GRID|   Bounds   2            -13      13                Points:          27
 RS_GRID|   Bounds   3            -13      13                Points:          27

 RS_GRID| Information for grid number                                          5
 RS_GRID|   Bounds   1             -7       7                Points:          15
 RS_GRID|   Bounds   2             -7       7                Points:          15
 RS_GRID|   Bounds   3             -7       7                Points:          15

 Extrapolation method: initial_guess

 Atomic guess: The first density matrix is obtained in terms of atomic orbitals
               and electronic configurations assigned to each atomic kind

 Guess for atomic kind: O

 Electronic structure
    Total number of core electrons                                          2.00
    Total number of valence electrons                                       6.00
    Total number of electrons                                               8.00
    Multiplicity                                                   not specified
    S   [  2.00] 2.00
    P      4.00


 *******************************************************************************
                  Iteration          Convergence                     Energy [au]
 *******************************************************************************
                          1        0.702811                     -15.577904332270
                          2        0.612408                     -15.588447180504
                          3        0.955344E-02                 -15.655871208406
                          4        0.223754E-02                 -15.655885053552
                          5        0.157183E-02                 -15.655885461027
                          6        0.124953E-02                 -15.655885607150
                          7        0.312011E-06                 -15.655885858066

 Energy components [Hartree]           Total Energy ::          -15.655885858066
                                        Band Energy ::           -2.983128125584
                                     Kinetic Energy ::           11.754765134683
                                   Potential Energy ::          -27.410650992749
                                      Virial (-V/T) ::            2.331875684345
                                        Core Energy ::          -26.153522949072
                                          XC Energy ::           -3.157392363346
                                     Coulomb Energy ::           13.655029454351
                       Total Pseudopotential Energy ::          -37.943026860963
                       Local Pseudopotential Energy ::          -39.220419683052
                    Nonlocal Pseudopotential Energy ::            1.277392822089
                                        Confinement ::            0.347387772086

 Orbital energies  State     L     Occupation   Energy[a.u.]          Energy[eV]

                       1     0          2.000      -0.861522          -23.443215

                       1     1          4.000      -0.315021           -8.572154


 Total Electron Density at R=0:                                         0.000093

 Guess for atomic kind: H

 Electronic structure
    Total number of core electrons                                          0.00
    Total number of valence electrons                                       1.00
    Total number of electrons                                               1.00
    Multiplicity                                                   not specified
    S      1.00


 *******************************************************************************
                  Iteration          Convergence                     Energy [au]
 *******************************************************************************
                          1        0.250972E-02                  -0.375256815885
                          2        0.570752E-04                  -0.375258666164
                          3        0.832405E-09                  -0.375258667122

 Energy components [Hartree]           Total Energy ::           -0.375258667122
                                        Band Energy ::           -0.076317618391
                                     Kinetic Energy ::            0.771356566341
                                   Potential Energy ::           -1.146615233463
                                      Virial (-V/T) ::            1.486491829455
                                        Core Energy ::           -0.456090715790
                                          XC Energy ::           -0.314218627334
                                     Coulomb Energy ::            0.395050676003
                       Total Pseudopotential Energy ::           -1.238482237174
                       Local Pseudopotential Energy ::           -1.238482237174
                    Nonlocal Pseudopotential Energy ::            0.000000000000
                                        Confinement ::            0.110349550431

 Orbital energies  State     L     Occupation   Energy[a.u.]          Energy[eV]

                       1     0          1.000      -0.076318           -2.076708


 Total Electron Density at R=0:                                         0.425022
 Re-scaling the density matrix to get the right number of electrons
                  # Electrons              Trace(P)               Scaling factor
                            8                 8.000                        1.000

 Number of electrons:                                                          8
 Number of occupied orbitals:                                                  4
 Number of molecular orbitals:                                                 4

 Number of orbital functions:                                                 23
 Number of independent orbital functions:                                     23


 SCF WAVEFUNCTION OPTIMIZATION

  Step     Update method      Time    Convergence         Total energy    Change
  ------------------------------------------------------------------------------
     1 P_Mix/Diag. 0.40E+00    1.0     0.82009779       -16.7272499719 -1.67E+01
     2 P_Mix/Diag. 0.40E+00    0.4     0.56535323       -16.8585625486 -1.31E-01
     3 P_Mix/Diag. 0.40E+00    0.4     0.26869887       -16.9446449306 -8.61E-02
     4 P_Mix/Diag. 0.40E+00    0.3     0.21309923       -16.9989970860 -5.44E-02
     5 P_Mix/Diag. 0.40E+00    0.3     0.11571867       -17.0325154283 -3.35E-02
     6 P_Mix/Diag. 0.40E+00    0.4     0.07981243       -17.0529646556 -2.04E-02
     7 DIIS/Diag.  0.15E-01    0.3     0.04977052       -17.0653558153 -1.24E-02
     8 DIIS/Diag.  0.10E-02    0.3     0.00163588       -17.0841267445 -1.88E-02
     9 DIIS/Diag.  0.34E-03    0.3     0.00035491       -17.0841271893 -4.45E-07
    10 DIIS/Diag.  0.19E-03    0.4     0.00022218       -17.0841272524 -6.32E-08
    11 DIIS/Diag.  0.68E-05    0.4     0.00000659       -17.0841272631 -1.06E-08

  *** SCF run converged in    11 steps ***


  Electronic density on regular grids:         -8.0000006302       -0.0000006302
  Core density on regular grids:                7.9999999981       -0.0000000019
  Total charge density on r-space grids:       -0.0000006321
  Total charge density g-space grids:          -0.0000006321

  Overlap energy of the core charge distribution:               0.00000000000015
  Self energy of the core charge distribution:                -44.34715499673765
  Core Hamiltonian energy:                                     12.37680482922424
  Hartree energy:                                              18.88539218744177
  Exchange-correlation energy:                                 -4.04002279730721

  DFT+U energy:                                                 0.04085351432522

  Total energy:                                               -17.08412726305348

 !-----------------------------------------------------------------------------!
                     Mulliken Population Analysis

 #  Atom  Element  Kind  Atomic population                           Net charge
       1     O        1          6.440857                             -0.440857
       2     H        2          0.779572                              0.220428
       3     H        2          0.779572                              0.220428
 # Total charge                              8.000000                  0.000000

 !-----------------------------------------------------------------------------!

 !-----------------------------------------------------------------------------!
                           Hirshfeld Charges

  #Atom  Element  Kind  Ref Charge     Population                    Net charge
      1       O      1       6.000          7.072                        -1.072
      2       H      2       1.000          0.453                         0.547
      3       H      2       1.000          0.453                         0.547

  Total Charge                                                            0.021
 !-----------------------------------------------------------------------------!

 ENERGY| Total FORCE_EVAL ( QS ) energy [hartree]            -17.084127263102282

 FORCES| Atomic forces [hartree/bohr]
 FORCES|   Atom     x               y               z               |f|
 FORCES|      1 -3.62227072E-11  1.83013300E-01 -1.59888581E-11   1.83013300E-01
 FORCES|      2 -1.56335668E-12 -9.12636836E-02 -5.05000874E-02   1.04303973E-01
 FORCES|      3  1.88618104E-12 -9.12636836E-02  5.05000875E-02   1.04303973E-01
 FORCES| Sum    -3.58998828E-11  4.85932676E-04  7.35945402E-11
 FORCES| Total atomic force                                       4.85932676E-04

 -------------------------------------------------------------------------------
 -                                                                             -
 -                                DBCSR STATISTICS                             -
 -                                                                             -
 -------------------------------------------------------------------------------
 COUNTER                                    TOTAL       BLAS       SMM       ACC
 flops    13 x     5 x     4                 6240     100.0%      0.0%      0.0%     
 flops     5 x    13 x     4                 6240     100.0%      0.0%      0.0%     
 flops     5 x     5 x     4                 7200     100.0%      0.0%      0.0%     
 flops    13 x    13 x     4                16224     100.0%      0.0%      0.0%     
 flops inhomo. stacks                           0       0.0%      0.0%      0.0%
 flops total                        35.904000E+03     100.0%      0.0%      0.0%
 flops max/rank                     35.904000E+03     100.0%      0.0%      0.0%
 matmuls inhomo. stacks                         0       0.0%      0.0%      0.0%
 matmuls total                                 72     100.0%      0.0%      0.0%
 number of processed stacks                    48     100.0%      0.0%      0.0%
 average stack size                                     1.5       0.0       0.0
 marketing flops                    50.784000E+03
 -------------------------------------------------------------------------------
 # multiplications                             12
 max memory usage/rank               1.977958E+09
 # max total images/rank                        1
 # max 3D layers                                1
 # MPI messages exchanged                       0
 -------------------------------------------------------------------------------
 -                                                                             -
 -                      DBCSR MESSAGE PASSING PERFORMANCE                      -
 -                                                                             -
 -------------------------------------------------------------------------------
 ROUTINE             CALLS      AVE VOLUME [Bytes]
 MP_Bcast                5                     12.
 MP_Allreduce           87                     13.
 MP_Alltoall           379                   2248.
 MP_ISend               48                     60.
 MP_IRecv               48                     60.
 -------------------------------------------------------------------------------

 -------------------------------------------------------------------------------
 -                                                                             -
 -                                GRID STATISTICS                              -
 -                                                                             -
 -------------------------------------------------------------------------------
 LP    KERNEL             BACKEND                              COUNT     PERCENT
 2     collocate ortho    CPU                                    888      25.08%
 2     integrate ortho    CPU                                    814      22.99%
 3     integrate ortho    CPU                                    602      17.01%
 3     collocate ortho    CPU                                    576      16.27%
 4     integrate ortho    CPU                                    323       9.12%
 4     collocate ortho    CPU                                    300       8.47%
 5     integrate ortho    CPU                                     25       0.71%
 0     collocate general  CPU                                      6       0.17%
 0     integrate general  CPU                                      3       0.08%
 1     integrate general  CPU                                      3       0.08%
 -------------------------------------------------------------------------------

 -------------------------------------------------------------------------------
 -                                                                             -
 -                          OFFLOAD MEMPOOL STATISTICS                         -
 -                                                                             -
 -------------------------------------------------------------------------------
 Memory consumption                Number of allocations  Used [MiB]  Size [MiB]
 Host                                                  6           5   119289592
 -------------------------------------------------------------------------------

 MEMORY| Estimated peak process memory [MiB]                                 623

 -------------------------------------------------------------------------------
 ----                             MULTIGRID INFO                            ----
 -------------------------------------------------------------------------------
 count for grid        1:           4354          cutoff [a.u.]          140.00
 count for grid        2:           1342          cutoff [a.u.]           46.67
 count for grid        3:            806          cutoff [a.u.]           15.56
 count for grid        4:            205          cutoff [a.u.]            5.19
 total gridlevel count  :           6707

 -------------------------------------------------------------------------------
 -                                                                             -
 -                         MESSAGE PASSING PERFORMANCE                         -
 -                                                                             -
 -------------------------------------------------------------------------------

 ROUTINE             CALLS      AVE VOLUME [Bytes]
 MP_Group                5
 MP_Bcast               22                     94.
 MP_Allreduce          205                     14.
 MP_Sync                15
 MP_comm_split          11
 -------------------------------------------------------------------------------


 -------------------------------------------------------------------------------
 -                                                                             -
 -                           R E F E R E N C E S                               -
 -                                                                             -
 -------------------------------------------------------------------------------
 
 CP2K version 2026.2, the CP2K developers group (2026).
 CP2K is freely available from https://www.cp2k.org/ .
 
 M. Iannuzzi, J. Wilhelm, F. Stein, A. Bussy, H. Elgabarty, D. Golze, A. Hehn, 
 M. Graml, S. Marek, B. Sertcan Gökmen, C. Schran, H. Forbert, R. Z. 
 Khaliullin, A. Kozhevnikov, M. Taillefumier, R. Meli, V. V. Rybkin, M. Brehm, 
 R. Schade, O. Schütt, J. V. Pototschnig, H. Mirhosseini, A. Knüpfer, D. Marx, 
 M. Krack, J. Hutter, T. D. Kühne.
 J. Phys. Chem. B 130, 1237-1310 (2026).
 The CP2K Program Package Made Simple.
 https://doi.org/10.1021/acs.jpcb.5c05851

 T. D. Kühne, M. Iannuzzi, M. Del Ben, V. V. Rybkin, P. Seewald, F. Stein, T. 
 Laino, R. Z. Khaliullin, O. Schütt, F. Schiffmann, D. Golze, J. Wilhelm, S. 
 Chulkov, M. H. Bani-Hashemian, V. Weber, U. Borstnik, M. Taillefumier, A. S. 
 Jakobovits, A. Lazzaro, H. Pabst, T. Müller, R. Schade, M. Guidon, S. 
 Andermatt, N. Holmberg, G. K. Schenter, A. Hehn, A. Bussy, F. Belleflamme, G. 
 Tabacchi, A. Glöß, M. Lass, I. Bethune, C. J. Mundy, C. Plessl, M. Watkins, 
 J. VandeVondele, M. Krack, J. Hutter.
 J. Chem. Phys. 152, 194103 (2020).
 CP2K: An electronic structure and molecular dynamics software package - 
 Quickstep: Efficient and accurate electronic structure calculations.
 https://doi.org/10.1063/5.0007045

 O. Schuett, P. Messmer, J. Hutter, J. VandeVondele.
 Electronic Structure Calculations on Graphics Processing Units, 173-190 (2016).
 GPU-Accelerated Sparse Matrix-Matrix Multiplication for Linear Scaling Density 
 Functional Theory.
 https://doi.org/10.1002/9781118670712.ch8

 A. Heinecke, G. Henry, M. Hutchinson, H. Pabst.
 Proceedings of Intl. Supercomputing Conference, 981-991 (2016).
 LIBXSMM: Accelerating Small Matrix Multiplications by Runtime Code Generation.
 https://doi.org/10.1109/SC.2016.83

 U. Borstnik, J. VandeVondele, V. Weber, J. Hutter.
 Parallel Comput. 40, 47-58 (2014).
 Sparse matrix multiplication: The distributed block-compressed sparse row 
 library.
 https://doi.org/10.1016/j.parco.2014.03.012

 A. Marek, V. Blum, R. Johanni, V. Havu, B. Lang, T. Auckenthaler, A. Heinecke, 
 H. Bungartz, H. Lederer.
 J. Phys. Condens. Matter 26, 213201 (2014).
 The ELPA library: scalable parallel eigenvalue solutions for electronic 
 structure theory and computational science.
 https://doi.org/10.1088/0953-8984/26/21/213201

 J. VandeVondele, J. Hutter.
 J. Chem. Phys. 127, 114105 (2007).
 Gaussian basis sets for accurate calculations on molecular systems in gas and 
 condensed phases.
 https://doi.org/10.1063/1.2770708

 J. VandeVondele, M. Krack, F. Mohamed, M. Parrinello, T. Chassaing, J. Hutter.
 Comput. Phys. Commun. 167, 103-128 (2005).
 QUICKSTEP: Fast and accurate density functional calculations using a mixed 
 Gaussian and plane waves approach.
 https://doi.org/10.1016/j.cpc.2004.12.014

 M. Krack.
 Theor. Chem. Acc. 114, 145-152 (2005).
 Pseudopotentials for H to Kr optimized for gradient-corrected 
 exchange-correlation functionals.
 https://doi.org/10.1007/s00214-005-0655-y

 M. Frigo, S. G. Johnson.
 Proc. IEEE 93, 216-231 (2005).
 The design and implementation of FFTW3.
 https://doi.org/10.1109/JPROC.2004.840301

 G. J. Martyna, M. E. Tuckerman.
 J. Chem. Phys. 110, 2810-2821 (1999).
 A reciprocal space based method for treating long range interactions in ab 
 initio and force-field-based calculations in clusters.
 https://doi.org/10.1063/1.477923

 C. Hartwigsen, S. Goedecker, J. Hutter.
 Phys. Rev. B 58, 3641-3662 (1998).
 Relativistic separable dual-space Gaussian pseudopotentials from H to Rn.
 https://doi.org/10.1103/PhysRevB.58.3641

 S. L. Dudarev, G. A. Botton, S. Y. Savrasov, C. J. Humphreys, A. P. Sutton.
 Phys. Rev. B 57, 1505-1509 (1998).
 Electron-energy-loss spectra and the structural stability of nickel oxide: An 
 LSDA+U study.
 https://doi.org/10.1103/PhysRevB.57.1505

 G. Lippert, J. Hutter, M. Parrinello.
 Mol. Phys. 92, 477-487 (1997).
 A hybrid Gaussian and plane wave density functional scheme.
 https://doi.org/10.1080/002689797170220

 S. L. Dudarev, D. N. Manh, A. P. Sutton.
 Philos. Mag. B 75, 613-628 (1997).
 Effect of Mott-Hubbard correlations on the electronic structure and structural 
 stability of uranium dioxide.
 https://doi.org/10.1080/13642819708202343

 S. Goedecker, M. Teter, J. Hutter.
 Phys. Rev. B 54, 1703-1710 (1996).
 Separable dual-space Gaussian pseudopotentials.
 https://doi.org/10.1103/PhysRevB.54.1703

 J. P. Perdew, K. Burke, M. Ernzerhof.
 Phys. Rev. Lett. 77, 3865-3868 (1996).
 Generalized gradient approximation made simple.
 https://doi.org/10.1103/PhysRevLett.77.3865


 -------------------------------------------------------------------------------
 -                                                                             -
 -                                T I M I N G                                  -
 -                                                                             -
 -------------------------------------------------------------------------------
 SUBROUTINE                       CALLS  ASD         SELF TIME        TOTAL TIME
                                MAXIMUM       AVERAGE  MAXIMUM  AVERAGE  MAXIMUM
 CP2K                                 1  1.0    0.025    0.025    6.045    6.045
 qs_forces                            1  2.0    0.000    0.000    4.963    4.963
 qs_energies                          1  3.0    0.000    0.000    4.678    4.678
 scf_env_do_scf                       1  4.0    0.000    0.000    4.506    4.506
 scf_env_do_scf_inner_loop           11  5.0    0.001    0.001    4.506    4.506
 rebuild_ks_matrix                   12  6.8    0.000    0.000    4.278    4.278
 qs_ks_build_kohn_sham_matrix        12  7.8    0.002    0.002    4.278    4.278
 qs_ks_update_qs_env                 11  6.0    0.000    0.000    3.995    3.995
 qs_vxc_create                       12  8.8    0.000    0.000    3.145    3.145
 xc_vxc_pw_create                    12  9.8    0.054    0.054    3.145    3.145
 fft_wrap_pw1pw2                    206 11.1    0.004    0.004    2.423    2.423
 xc_rho_set_and_dset_create          12 10.8    0.043    0.043    2.193    2.193
 fft_wrap_pw1pw2_140                133 12.5    0.097    0.097    2.091    2.091
 xc_functional_eval                  12 11.8    0.000    0.000    1.516    1.516
 pbe_lda_eval                        12 12.8    1.516    1.516    1.516    1.516
 xc_pw_derive                        72 11.8    0.001    0.001    1.281    1.281
 fft3d_s                            207 13.0    1.265    1.265    1.279    1.279
 qs_init_subsys                       1  2.0    0.002    0.002    1.049    1.049
 qs_env_setup                         1  3.0    0.000    0.000    0.902    0.902
 qs_env_rebuild_pw_env                3  3.7    0.000    0.000    0.902    0.902
 pw_env_rebuild                       1  5.0    0.000    0.000    0.902    0.902
 pw_grid_setup                        5  6.0    0.000    0.000    0.900    0.900
 pw_grid_setup_internal               5  7.0    0.009    0.009    0.900    0.900
 xc_pw_divergence                    12 10.8    0.001    0.001    0.876    0.876
 pw_grid_sort                         5  8.0    0.596    0.596    0.708    0.708
 pw_poisson_solve                    12  8.8    0.000    0.000    0.617    0.617
 qs_rho_update_rho_low               12  6.0    0.000    0.000    0.589    0.589
 calculate_rho_elec                  12  7.0    0.035    0.035    0.589    0.589
 pw_gather_s                         98 12.7    0.546    0.546    0.546    0.546
 density_rs2pw                       12  8.0    0.001    0.001    0.509    0.509
 pw_poisson_rebuild                  12  9.8    0.003    0.003    0.394    0.394
 MTin_create_screen_fn                1 11.0    0.004    0.004    0.391    0.391
 sum_up_and_integrate                12  8.8    0.000    0.000    0.325    0.325
 integrate_v_rspace                  12  9.8    0.001    0.001    0.313    0.313
 pw_scatter_s                       108 13.4    0.285    0.285    0.285    0.285
 qs_ks_update_qs_env_forces           1  3.0    0.000    0.000    0.284    0.284
 potential_pw2rs                     12 10.8    0.002    0.002    0.277    0.277
 fft_wrap_pw1pw2_280                  1 13.0    0.093    0.093    0.254    0.254
 pw_derive                          108 12.1    0.212    0.212    0.212    0.212
 pw_grid_assign                       5  8.0    0.183    0.183    0.183    0.183
 pw_copy                            180 11.3    0.166    0.166    0.166    0.166
 pw_poisson_set                      13  9.5    0.001    0.001    0.140    0.140
 write_dft_control                    1  3.0    0.053    0.053    0.138    0.138
 init_scf_run                         1  4.0    0.000    0.000    0.126    0.126
 -------------------------------------------------------------------------------

 The number of warnings for this run is : 0
 
 -------------------------------------------------------------------------------
  **** **** ******  **  PROGRAM ENDED AT                 2026-09-12 02:59:48.088
 ***** ** ***  *** **   PROGRAM RAN ON                           <host>
 **    ****   ******    PROGRAM RAN BY                                     <user>
 ***** **    ** ** **   PROGRAM PROCESS ID                                 67132
  **** **  *******  **  PROGRAM STOPPED IN /home/<user>/adit/examples/pre
                                           p_stage1_cp2k_dftu_h2o
