  ABINIT 10.0.3
  
-instrng: 30 lines of input have been read from file input.abi


.Version 10.0.3 of ABINIT, released Apr 2024.
.(MPI version, prepared for a x86_64_linux_gnu13.3 computer) 

.Copyright (C) 1998-2024 ABINIT group . 
 ABINIT comes with ABSOLUTELY NO WARRANTY.
 It is free software, and you are welcome to redistribute it
 under certain conditions (GNU General Public License,
 see ~abinit/COPYING or http://www.gnu.org/copyleft/gpl.txt).

 ABINIT is a project of the Universite Catholique de Louvain,
 Corning Inc. and other collaborators, see ~abinit/doc/developers/contributors.txt .
 Please read https://docs.abinit.org/theory/acknowledgments for suggested
 acknowledgments of the ABINIT effort.
 For more information, see https://www.abinit.org .

.Starting date : Sun 13 Sep 2026.
- ( at 06h20 )
  
- The starting date is more than 2 years after the initial release
- of this version of ABINIT, namely Apr 2024.
- Note that the use beyond 3 years after the release will not be supported.
- Action: please, switch to a more recent version of ABINIT.


 ++++++++++++++++++++++++++++++++++++++++++++++++++++++++++++++++++++++++++++++

 === Build Information === 
  Version       : 10.0.3
  Build target  : x86_64_linux_gnu13.3
  Build date    : 20241210

 === Compiler Suite === 
  C compiler       : gnu
  C++ compiler     : gnu13.3
  Fortran compiler : gnu13.3
  CFLAGS           : -march=nocona -mtune=haswell -ftree-vectorize -fPIC -fstack-protect ...
  CXXFLAGS         : -fvisibility-inlines-hidden -fmessage-length=0 -march=nocona -mtune ...
  FCFLAGS          : -g -ffree-line-length-none -fallow-argument-mismatch   -fallow-argument-mismatch
  FC_LDFLAGS       : 

 === Optimizations === 
  Debug level        : basic
  Optimization level : standard
  Architecture       : intel_xeon

 === Multicore === 
  Parallel build : yes
  Parallel I/O   : yes
  openMP support : 
  GPU support    : 

 === Connectors / Fallbacks === 
  LINALG flavor  : netlib
  FFT flavor     : fftw3
  HDF5           : yes
  NetCDF         : yes
  NetCDF Fortran : yes
  LibXC          : yes
  Wannier90      : no

 === Experimental features === 
  Exports             : 
  GW double-precision : 

 ++++++++++++++++++++++++++++++++++++++++++++++++++++++++++++++++++++++++++++++


 ++++++++++++++++++++++++++++++++++++++++++++++++++++++++++++++++++++++++++++++
 Default optimizations:
   -O2 -march=nocona -mtune=haswell


 Optimizations for 43_ptgroups:
   -O0


 ++++++++++++++++++++++++++++++++++++++++++++++++++++++++++++++++++++++++++++++


 ++++++++++++++++++++++++++++++++++++++++++++++++++++++++++++++++++++++++++++++
 CPP options activated during the build:

                    CC_GNU                   CXX_GNU                    FC_GNU
 
 HAVE_FC_ALLOCATABLE_DT...             HAVE_FC_ASYNC         HAVE_FC_BACKTRACE
 
  HAVE_FC_COMMAND_ARGUMENT      HAVE_FC_COMMAND_LINE        HAVE_FC_CONTIGUOUS
 
           HAVE_FC_CPUTIME              HAVE_FC_EXIT             HAVE_FC_FLUSH
 
             HAVE_FC_GAMMA            HAVE_FC_GETENV   HAVE_FC_IEEE_ARITHMETIC
 
   HAVE_FC_IEEE_EXCEPTIONS          HAVE_FC_INT_QUAD             HAVE_FC_IOMSG
 
     HAVE_FC_ISO_C_BINDING  HAVE_FC_ISO_FORTRAN_2008        HAVE_FC_LONG_LINES
 
        HAVE_FC_MOVE_ALLOC  HAVE_FC_ON_THE_FLY_SHAPE           HAVE_FC_PRIVATE
 
         HAVE_FC_PROTECTED           HAVE_FC_SHIFTLR         HAVE_FC_STREAM_IO
 
            HAVE_FC_SYSTEM                HAVE_FFTW3          HAVE_FORTRAN2003
 
                 HAVE_HDF5             HAVE_HDF5_MPI        HAVE_LIBPAW_ABINIT
 
      HAVE_LIBTETRA_ABINIT                HAVE_LIBXC                  HAVE_MPI
 
                 HAVE_MPI2         HAVE_MPI2_INPLACE       HAVE_MPI_IALLGATHER
 
       HAVE_MPI_IALLREDUCE        HAVE_MPI_IALLTOALL       HAVE_MPI_IALLTOALLV
 
           HAVE_MPI_IBCAST         HAVE_MPI_IGATHERV        HAVE_MPI_INTEGER16
 
               HAVE_MPI_IO HAVE_MPI_TYPE_CREATE_S...               HAVE_NETCDF
 
       HAVE_NETCDF_FORTRAN   HAVE_NETCDF_FORTRAN_MPI           HAVE_NETCDF_MPI
 
             HAVE_OS_LINUX         HAVE_TIMER_ABINIT                            
 ++++++++++++++++++++++++++++++++++++++++++++++++++++++++++++++++++++++++++++++

- input  file    -> input.abi
- output file    -> input.abo
- root for input  files -> inputi
- root for output files -> inputo

 Netcdf library supports MPI-IO
-instrng: 30 lines of input have been read from file input.abi

 For atom type 1, psp file is ./14si.pspnc
  read the values zionpsp=  4.0 , pspcod=   1 , lmax=   2

 inpspheads: deduce mpsang = 3, n1xccc = 2501.

======================================================= 
 invars1m : enter jdtset= 0
  xred   is defined in input file
 ingeo: takes atomic coordinates from input array xred

--- !COMMENT
src_file: m_symfind.F90
src_line: 823
message: |
    The tolerance on symmetries =   1.000E-05 is bigger than 1.0e-8.
    In order to avoid spurious effects, the atomic coordinates have been
    symmetrized before storing them in the dataset internal variable.
    So, do not be surprised by the fact that your input variables (xcart, xred, ...)
    do not correspond exactly to the ones echoed by ABINIT, the latter being used to do the calculations.
    This is not a problem per se.
    Still, in order to avoid this symmetrization (e.g. for specific debugging/development), decrease tolsym to 1.0e-8 or lower,
    or (much preferred) use input primitive vectors that are accurate to better than 1.0e-8.
    This message will only be printed once, even if there are other datasets where tolsym is bigger than 1.0e-8.
...


 symlatt: the Bravais lattice is cF (face-centered cubic)
 symspgr: spgroup= 227  Fd -3 m   (=Oh^7)
 symspgr: optical characteristics = isotropic
 invars2: take the default value of fband=  1.25000000E-01
 LMac pawujat is:            0
 For input ecut=  8.000000E+00 best grid ngfft=      20      20      20
       max ecut=  9.373512E+00

 ==== FFT mesh ====
  FFT mesh divisions ........................    20   20   20
  Augmented FFT divisions ...................    21   21   20
  FFT algorithm .............................   312
  FFT cache size ............................    16
 getmpw: optimal value of mpw= 303
 Symmetries : space group Fd -3 m (#227); Bravais cF (face-center cubic)

 getdim_nloc: deduce lmnmax  =   4, lnmax  =   2,
                      lmnmaxso=   4, lnmaxso=   2.
memory: analysis of memory needs
================================================================================
 Values of the parameters that define the memory need of the present run
     intxc =       0    ionmov =       0      iscf =       7    lmnmax =       2
     lnmax =       2     mgfft =      20  mpssoang =       3    mqgrid =    3001
     natom =       2  nloc_mem =       1    nspden =       1   nspinor =       1
    nsppol =       1      nsym =      48    n1xccc =    2501    ntypat =       1
    occopt =       1   xclevel =       1
-    mband =           5        mffmem =           1         mkmem =           8
       mpw =         303          nfft =        8000          nkpt =           8
================================================================================
P This job should need less than                       3.270 Mbytes of memory.
  Rough estimation (10% accuracy) of disk space for files :
_ WF disk file :      0.187 Mbytes ; DEN or POT disk file :      0.063 Mbytes.
================================================================================

 Biggest array : f_fftgr(disk), with      0.9786 MBytes.
 memana : allocated an array of      0.979 Mbytes, for testing purposes.
 memana: allocated       3.270Mbytes, for testing purposes. 
 The job will continue.
--------------------------------------------------------------------------------
------------- Echo of variables that govern the present computation ------------
--------------------------------------------------------------------------------
-
- outvars: echo of selected default values                                      
-   iomode0 =  0 , fftalg0 =312 , wfoptalg0 =  0
-
- outvars: echo of global parameters not present in the input file              
-  max_nthreads =    0
-
 -outvars: echo values of preprocessed input variables --------
 
 These variables are accessible in NetCDF format (inputo_OUT.nc)

            acell      1.0000000000E+00  1.0000000000E+00  1.0000000000E+00 Bohr
              amu      2.80855000E+01
             ecut      8.00000000E+00 Hartree
-          fftalg         312
           istwfk        2    0    3    0    0    0    7    0
              kpt      0.00000000E+00  0.00000000E+00  0.00000000E+00
                       2.50000000E-01  0.00000000E+00  0.00000000E+00
                       5.00000000E-01  0.00000000E+00  0.00000000E+00
                       2.50000000E-01  2.50000000E-01  0.00000000E+00
                       5.00000000E-01  2.50000000E-01  0.00000000E+00
                      -2.50000000E-01  2.50000000E-01  0.00000000E+00
                       5.00000000E-01  5.00000000E-01  0.00000000E+00
                      -2.50000000E-01  5.00000000E-01  2.50000000E-01
         kptrlatt        4    0    0      0    4    0      0    0    4
          kptrlen      2.90230928E+01
P           mkmem           8
            natom           2
            nband           5
            ngfft          20      20      20
             nkpt           8
             nsym          48
           ntypat           1
              occ      2.000000  2.000000  2.000000  2.000000  0.000000
            rprim      0.0000000000E+00  5.1306064284E+00  5.1306064284E+00
                       5.1306064284E+00  0.0000000000E+00  5.1306064284E+00
                       5.1306064284E+00  5.1306064284E+00  0.0000000000E+00
          spgroup         227
           symrel      1  0  0   0  1  0   0  0  1      -1  0  0   0 -1  0   0  0 -1
                       0 -1  1   0 -1  0   1 -1  0       0  1 -1   0  1  0  -1  1  0
                      -1  0  0  -1  0  1  -1  1  0       1  0  0   1  0 -1   1 -1  0
                       0  1 -1   1  0 -1   0  0 -1       0 -1  1  -1  0  1   0  0  1
                      -1  0  0  -1  1  0  -1  0  1       1  0  0   1 -1  0   1  0 -1
                       0 -1  1   1 -1  0   0 -1  0       0  1 -1  -1  1  0   0  1  0
                       1  0  0   0  0  1   0  1  0      -1  0  0   0  0 -1   0 -1  0
                       0  1 -1   0  0 -1   1  0 -1       0 -1  1   0  0  1  -1  0  1
                      -1  0  1  -1  1  0  -1  0  0       1  0 -1   1 -1  0   1  0  0
                       0 -1  0   1 -1  0   0 -1  1       0  1  0  -1  1  0   0  1 -1
                       1  0 -1   0  0 -1   0  1 -1      -1  0  1   0  0  1   0 -1  1
                       0  1  0   0  0  1   1  0  0       0 -1  0   0  0 -1  -1  0  0
                       1  0 -1   0  1 -1   0  0 -1      -1  0  1   0 -1  1   0  0  1
                       0 -1  0   0 -1  1   1 -1  0       0  1  0   0  1 -1  -1  1  0
                      -1  0  1  -1  0  0  -1  1  0       1  0 -1   1  0  0   1 -1  0
                       0  1  0   1  0  0   0  0  1       0 -1  0  -1  0  0   0  0 -1
                       0  0 -1   0  1 -1   1  0 -1       0  0  1   0 -1  1  -1  0  1
                       1 -1  0   0 -1  1   0 -1  0      -1  1  0   0  1 -1   0  1  0
                       0  0  1   1  0  0   0  1  0       0  0 -1  -1  0  0   0 -1  0
                      -1  1  0  -1  0  0  -1  0  1       1 -1  0   1  0  0   1  0 -1
                       0  0  1   0  1  0   1  0  0       0  0 -1   0 -1  0  -1  0  0
                       1 -1  0   0 -1  0   0 -1  1      -1  1  0   0  1  0   0  1 -1
                       0  0 -1   1  0 -1   0  1 -1       0  0  1  -1  0  1   0 -1  1
                      -1  1  0  -1  0  1  -1  0  0       1 -1  0   1  0 -1   1  0  0
            tnons      0.0000000  0.0000000  0.0000000     0.2500000  0.2500000  0.2500000
                       0.0000000  0.0000000  0.0000000     0.2500000  0.2500000  0.2500000
                       0.0000000  0.0000000  0.0000000     0.2500000  0.2500000  0.2500000
                       0.0000000  0.0000000  0.0000000     0.2500000  0.2500000  0.2500000
                       0.0000000  0.0000000  0.0000000     0.2500000  0.2500000  0.2500000
                       0.0000000  0.0000000  0.0000000     0.2500000  0.2500000  0.2500000
                       0.0000000  0.0000000  0.0000000     0.2500000  0.2500000  0.2500000
                       0.0000000  0.0000000  0.0000000     0.2500000  0.2500000  0.2500000
                       0.0000000  0.0000000  0.0000000     0.2500000  0.2500000  0.2500000
                       0.0000000  0.0000000  0.0000000     0.2500000  0.2500000  0.2500000
                       0.0000000  0.0000000  0.0000000     0.2500000  0.2500000  0.2500000
                       0.0000000  0.0000000  0.0000000     0.2500000  0.2500000  0.2500000
                       0.0000000  0.0000000  0.0000000     0.2500000  0.2500000  0.2500000
                       0.0000000  0.0000000  0.0000000     0.2500000  0.2500000  0.2500000
                       0.0000000  0.0000000  0.0000000     0.2500000  0.2500000  0.2500000
                       0.0000000  0.0000000  0.0000000     0.2500000  0.2500000  0.2500000
                       0.0000000  0.0000000  0.0000000     0.2500000  0.2500000  0.2500000
                       0.0000000  0.0000000  0.0000000     0.2500000  0.2500000  0.2500000
                       0.0000000  0.0000000  0.0000000     0.2500000  0.2500000  0.2500000
                       0.0000000  0.0000000  0.0000000     0.2500000  0.2500000  0.2500000
                       0.0000000  0.0000000  0.0000000     0.2500000  0.2500000  0.2500000
                       0.0000000  0.0000000  0.0000000     0.2500000  0.2500000  0.2500000
                       0.0000000  0.0000000  0.0000000     0.2500000  0.2500000  0.2500000
                       0.0000000  0.0000000  0.0000000     0.2500000  0.2500000  0.2500000
           toldfe      1.00000000E-08 Hartree
            typat      1  1
              wtk        0.01563    0.12500    0.06250    0.09375    0.37500    0.18750
                         0.04688    0.09375
           xangst      0.0000000000E+00  0.0000000000E+00  0.0000000000E+00
                       1.3574999941E+00  1.3574999941E+00  1.3574999941E+00
            xcart      0.0000000000E+00  0.0000000000E+00  0.0000000000E+00
                       2.5653032142E+00  2.5653032142E+00  2.5653032142E+00
             xred      0.0000000000E+00  0.0000000000E+00  0.0000000000E+00
                       2.5000000000E-01  2.5000000000E-01  2.5000000000E-01
            znucl       14.00000

================================================================================

 chkinp: Checking input parameters for consistency.
 DATA TYPE INFORMATION: 
 REAL:      Data type name: REAL(DP) 
            Kind value:      8
            Precision:      15
            Smallest nonnegligible quantity relative to 1:  0.22204460E-015
            Smallest positive number:                       0.22250739E-307
            Largest representable number:                   0.17976931E+309
 INTEGER:   Data type name: INTEGER(default) 
            Kind value: 4
            Bit size:   32
            Largest representable number: 2147483647
 LOGICAL:   Data type name: LOGICAL 
            Kind value: 4
 CHARACTER: Data type name: CHARACTER             Kind value: 1

  ==== OpenMP parallelism is OFF ====
 
  ==== Using MPI-2 specifications ==== 
  MPI-IO support is ON
  xmpi_tag_ub ................   1073741823
  xmpi_bsize_ch ..............            1
  xmpi_bsize_int .............            4
  xmpi_bsize_sp ..............            4
  xmpi_bsize_dp ..............            8
  xmpi_bsize_spc .............            8
  xmpi_bsize_dpc .............           16
  xmpio_bsize_frm ............            4
  xmpi_address_kind ..........            8
  xmpi_offset_kind ...........            8
  MPI_WTICK ..................    1.0000000000000001E-009

================================================================================
== DATASET  1 ==================================================================
-   mpi_nproc: 1, omp_nthreads: -1 (-1 if OMP is not activated)


--- !COMMENT
src_file: m_xgScalapack.F90
src_line: 236
message: |
    xgScalapack in auto mode
...


 getdim_nloc: deduce lmnmax  =   4, lnmax  =   2,
                      lmnmaxso=   4, lnmaxso=   2.
 Exchange-correlation functional for the present dataset will be:
  LDA: new Teter (4/93) with spin-polarized option - ixc=1
 Citation for XC functional:
  S. Goedecker, M. Teter, J. Huetter, PRB 54, 1703 (1996)

 Unit cell volume ucvol=  2.7010716E+02 bohr^3
 Angles (23,13,12)=  6.00000000E+01  6.00000000E+01  6.00000000E+01 degrees

 getcut: wavevector=  0.0000  0.0000  0.0000  ngfft=  20  20  20
         ecut(hartree)=      8.000   => boxcut(ratio)=   2.16489
- pspini: atom type   1  psp file is ./14si.pspnc
- pspatm: opening atomic psp file    ./14si.pspnc
-  Troullier-Martins psp for element  Si        Thu Oct 27 17:31:21 EDT 1994
- 14.00000   4.00000    940714                znucl, zion, pspdat
    1    1    2    2      2001   0.00000      pspcod,pspxc,lmax,lloc,mmax,r2well
    0   5.907  14.692    1   2.0872718        l,e99.0,e99.9,nproj,rcpsp
   0.00000000   0.00000000   0.00000000   0.00000000     rms, ekb1, ekb2, epsatm
    1   2.617   4.181    1   2.0872718        l,e99.0,e99.9,nproj,rcpsp
   0.00000000   0.00000000   0.00000000   0.00000000     rms, ekb1, ekb2, epsatm
    2   0.000   0.000    0   2.0872718        l,e99.0,e99.9,nproj,rcpsp
   0.00000000   0.00000000   0.00000000   0.00000000     rms, ekb1, ekb2, epsatm
    1.80626423934776    0.22824404341771    1.17378968127746   rchrg,fchrg,qchrg
  pspatm : epsatm=    1.43386982
         --- l  ekb(1:nproj) -->
             0    3.287949
             1    1.849886
 pspatm: atomic psp has been read  and splines computed

   2.29419171E+01                                ecore*ucvol(ha*bohr**3)
 ==== Info on pseudopotentials ====
  Norm-conserving pseudopotentials
  Number of pseudopotentials ..    1
  Number of types of atoms   ..    1
  Scalar calculation (no spin-orbit term)
  Nonlocal part applied using Legendre polynomials
  Max number of non-local projectors over l and type   1
  Highest angular momentum +1 .......   3
  Max number of (l,n)   components ..   2
  Max number of (l,m,n) components ..   2

 Pseudo-Core Charge Info: 
   Number of radial points for pseudo-core charge .. 2501
   XC core-correction treatment (optnlxccc) ........    1
   Radius for pseudo-core charge for each type ..... 

  - Atom type    1 has pseudo-core radius ..  5.4188

 Info on the Q-grid used for form factors in spline form: 
   Number of q-points for radial functions ffspl ..   3001
   Number of q-points for vlspl ...................   3001
   vloc is computed in Reciprocal Space
   model core charge treated in real-space

  XC functional for type 1 is 1
  Pseudo valence available: no

 symatm: atom number 1 is reached starting at atom
   1  2  1  2  1  2  1  2  1  2  1  2  1  2  1  2  1  2  1  2  1  2  1  2
   1  2  1  2  1  2  1  2  1  2  1  2  1  2  1  2  1  2  1  2  1  2  1  2
 symatm: atom number 2 is reached starting at atom
   2  1  2  1  2  1  2  1  2  1  2  1  2  1  2  1  2  1  2  1  2  1  2  1
   2  1  2  1  2  1  2  1  2  1  2  1  2  1  2  1  2  1  2  1  2  1  2  1
 wfconv:     5 bands initialized randomly with npw=   142, for ikpt=     1
 wfconv:     5 bands initialized randomly with npw=   296, for ikpt=     2
 wfconv:     5 bands initialized randomly with npw=   136, for ikpt=     3
 wfconv:     5 bands initialized randomly with npw=   303, for ikpt=     4
 wfconv:     5 bands initialized randomly with npw=   290, for ikpt=     5
 wfconv:     5 bands initialized randomly with npw=   295, for ikpt=     6
 wfconv:     5 bands initialized randomly with npw=   151, for ikpt=     7
 wfconv:     5 bands initialized randomly with npw=   280, for ikpt=     8
_setup2: Arith. and geom. avg. npw (full set) are     291.297     291.192
 initro: for itypat=  1, take decay length=      1.1000,
 initro: indeed, coreel=     10.0000, nval=  4 and densty=  0.0000E+00.

================================================================================

 getcut: wavevector=  0.0000  0.0000  0.0000  ngfft=  20  20  20
         ecut(hartree)=      8.000   => boxcut(ratio)=   2.16489

 1/G**2 cut-off applied in the following step : cutoff-mode = CRYSTAL

 1/G**2 cut-off applied in the following step : cutoff-mode = CRYSTAL

 1/G**2 cut-off applied in the following step : cutoff-mode = CRYSTAL

 ITER STEP NUMBER     1
 Max number of non-self-consistent loops: 2
 Total charge density [el/Bohr^3]
)     Maximum=    9.2455E-02  at reduced coord.    0.1000    0.1000    0.7000
)     Minimum=    2.5995E-03  at reduced coord.    0.5000    0.5000    0.5000
   Integrated=    8.0000E+00

 1/G**2 cut-off applied in the following step : cutoff-mode = CRYSTAL
 ETOT  1  -8.8601929878556    -8.860E+00 9.026E-03 5.892E+00
 scprqt: <Vxc>= -3.4955987E-01 hartree

 Simple mixing update:
  residual square of the potential:    2.3036282624495219
{SCF_istep: 1 , Vnl|psi>: 400 , wall_time: '  0.06 [s] '} <<< TIME

 ITER STEP NUMBER     2
 Max number of non-self-consistent loops: 2
 Total charge density [el/Bohr^3]
)     Maximum=    8.6870E-02  at reduced coord.    0.1000    0.1000    0.7000
)     Minimum=    2.9793E-03  at reduced coord.    0.5000    0.5000    0.5000
   Integrated=    8.0000E+00
 ETOT  2  -8.8651329394018    -4.940E-03 1.037E-06 2.898E-01
 scprqt: <Vxc>= -3.5163267E-01 hartree

 Pulay update with  1 previous iterations:
 mixing of old trial potential: alpha(m:m-4)=   1.23     -0.228
{SCF_istep: 2 , Vnl|psi>: 398 , wall_time: '  0.04 [s] '} <<< TIME

 ITER STEP NUMBER     3
 Total charge density [el/Bohr^3]
)     Maximum=    8.5978E-02  at reduced coord.    0.1000    0.1000    0.7000
)     Minimum=    3.1169E-03  at reduced coord.    0.5000    0.5000    0.5000
   Integrated=    8.0000E+00
 ETOT  3  -8.8652887766734    -1.558E-04 5.108E-06 4.510E-03
 scprqt: <Vxc>= -3.5213251E-01 hartree

 Pulay update with  2 previous iterations:
 mixing of old trial potential: alpha(m:m-4)=   1.29     -0.338      0.461E-01
{SCF_istep: 3 , Vnl|psi>: 180 , wall_time: '  0.02 [s] '} <<< TIME

 ITER STEP NUMBER     4
 Total charge density [el/Bohr^3]
)     Maximum=    8.5985E-02  at reduced coord.    0.1000    0.1000    0.7000
)     Minimum=    3.1370E-03  at reduced coord.    0.5000    0.5000    0.5000
   Integrated=    8.0000E+00
 ETOT  4  -8.8652901106407    -1.334E-06 4.040E-08 1.745E-05
 scprqt: <Vxc>= -3.5217591E-01 hartree

 Pulay update with  3 previous iterations:
 mixing of old trial potential: alpha(m:m-4)=   1.17     -0.212      0.499E-01 -0.760E-02
{SCF_istep: 4 , Vnl|psi>: 175 , wall_time: '  0.02 [s] '} <<< TIME

 ITER STEP NUMBER     5
 Total charge density [el/Bohr^3]
)     Maximum=    8.5978E-02  at reduced coord.    0.1000    0.1000    0.7000
)     Minimum=    3.1383E-03  at reduced coord.    0.5000    0.5000    0.5000
   Integrated=    8.0000E+00
 ETOT  5  -8.8652901201235    -9.483E-09 5.411E-10 1.384E-07
 scprqt: <Vxc>= -3.5218027E-01 hartree

 Pulay update with  4 previous iterations:
 mixing of old trial potential: alpha(m:m-4)=  0.986      0.161E-01 -0.256E-02  0.795E-03  0.208E-05
{SCF_istep: 5 , Vnl|psi>: 181 , wall_time: '  0.02 [s] '} <<< TIME

 ITER STEP NUMBER     6
 Total charge density [el/Bohr^3]
)     Maximum=    8.5979E-02  at reduced coord.    0.1000    0.1000    0.7000
)     Minimum=    3.1382E-03  at reduced coord.    0.5000    0.5000    0.5000
   Integrated=    8.0000E+00
 ETOT  6  -8.8652901202210    -9.751E-11 3.123E-11 3.051E-10
 scprqt: <Vxc>= -3.5217986E-01 hartree

 At SCF step    6, etot is converged : 
  for the second time, diff in etot=  9.751E-11 < toldfe=  1.000E-08
 
 -------------------------------------------------------------------------------------------------
 Ekinetic   = :     3.033048E+00 Ha ,    8.253342E+01 eV
 Evext_l    = :    -2.473073E+00 Ha ,   -6.729573E+01 eV
 Evext_nl   = :     1.869788E+00 Ha ,    5.087953E+01 eV
 Epsp_core  = :     8.493635E-02 Ha ,    2.311236E+00 eV
 Ehartree   = :     5.549474E-01 Ha ,    1.510089E+01 eV
 Exc_ks     = :    -3.535465E+00 Ha ,   -9.620490E+01 eV
 Enn        = :    -8.399472E+00 Ha ,   -2.285613E+02 eV
 -------------------------------------------------------------------------------------------------
 Etot       = :    -8.865290E+00 Ha ,   -2.412368E+02 eV
 -------------------------------------------------------------------------------------------------

 Cartesian components of stress tensor (hartree/bohr^3)
  sigma(1 1)=  5.08908278E-05  sigma(3 2)=  0.00000000E+00
  sigma(2 2)=  5.08908278E-05  sigma(3 1)=  0.00000000E+00
  sigma(3 3)=  5.08908278E-05  sigma(2 1)=  0.00000000E+00


 fftdatar_write: About to write data to: inputo_DEN with iomode: IO_MODE_FORTRAN
 IO operation , wall:  0.00 [s] , cpu:  0.00 [s] <<< TIME
- Creating HDf5 file with MPI-IO support: inputo_GSR.nc
 Integrated electronic density in atomic spheres:
 ------------------------------------------------
 Atom  Sphere_radius  Integrated_density
    1        2.00000          1.73120303
    2        2.00000          1.73120303
================================================================================

 ----iterations are completed or convergence reached----


 === Gap info ===
  >>>> For spin  1
   Minimum direct gap =   2.5039 [eV], located at k-point      :   0.0000  0.0000  0.0000
   Fundamental gap    =   0.5885 [eV], Top of valence bands at :   0.0000  0.0000  0.0000
                                       Bottom of conduction at :   0.5000  0.5000  0.0000
 Mean square residual over all n,k,spin=   14.490E-13; max=  31.233E-12
   0.0000  0.0000  0.0000    1  3.12327E-11 kpt; spin; max resid(k); each band:
  4.41E-14 6.68E-14 1.27E-14 2.41E-14 3.12E-11
   0.2500  0.0000  0.0000    1  1.67946E-12 kpt; spin; max resid(k); each band:
  8.41E-13 1.03E-12 3.46E-14 3.46E-14 1.68E-12
   0.5000  0.0000  0.0000    1  2.13980E-12 kpt; spin; max resid(k); each band:
  6.67E-15 2.10E-12 3.81E-15 3.81E-15 2.14E-12
   0.2500  0.2500  0.0000    1  1.51410E-12 kpt; spin; max resid(k); each band:
  1.20E-12 8.94E-15 1.92E-14 1.92E-14 1.51E-12
   0.5000  0.2500  0.0000    1  9.30695E-13 kpt; spin; max resid(k); each band:
  6.36E-13 7.21E-13 4.26E-13 1.60E-14 9.31E-13
  -0.2500  0.2500  0.0000    1  9.06017E-13 kpt; spin; max resid(k); each band:
  3.77E-13 7.55E-13 3.36E-13 1.07E-14 9.06E-13
   0.5000  0.5000  0.0000    1  9.48721E-13 kpt; spin; max resid(k); each band:
  2.43E-13 6.63E-13 1.09E-14 1.09E-14 9.49E-13
  -0.2500  0.5000  0.2500    1  5.85868E-12 kpt; spin; max resid(k); each band:
  3.33E-14 3.33E-14 1.98E-12 1.05E-12 5.86E-12

   outwf: writing wavefunctions to: inputo_WFK with iomode: IO_MODE_FORTRAN_MASTER
 WFK output , wall:  0.00 [s] , cpu:  0.00 [s] <<< TIME
 prteigrs : about to open file inputo_EIG
 Fermi (or HOMO) energy (hartree) =   0.21412   Average Vxc (hartree)=  -0.35218
 Eigenvalues (hartree) for nkpt=   8  k points:
 kpt#   1, nband=  5, wtk=  0.01563, kpt=  0.0000  0.0000  0.0000 (reduced coord)
  -0.22721    0.21412    0.21412    0.21412    0.30614
 kpt#   2, nband=  5, wtk=  0.12500, kpt=  0.2500  0.0000  0.0000 (reduced coord)
  -0.19765    0.06823    0.18566    0.18566    0.28372
 kpt#   3, nband=  5, wtk=  0.06250, kpt=  0.5000  0.0000  0.0000 (reduced coord)
  -0.14073   -0.04422    0.16950    0.16950    0.26585
 kpt#   4, nband=  5, wtk=  0.09375, kpt=  0.2500  0.2500  0.0000 (reduced coord)
  -0.18726    0.08391    0.14354    0.14354    0.25154
 kpt#   5, nband=  5, wtk=  0.37500, kpt=  0.5000  0.2500  0.0000 (reduced coord)
  -0.12669   -0.02174    0.08212    0.13196    0.26595
 kpt#   6, nband=  5, wtk=  0.18750, kpt= -0.2500  0.2500  0.0000 (reduced coord)
  -0.15165    0.01155    0.07383    0.16454    0.30030
 kpt#   7, nband=  5, wtk=  0.04688, kpt=  0.5000  0.5000  0.0000 (reduced coord)
  -0.07423   -0.07423    0.10795    0.10795    0.23575
 kpt#   8, nband=  5, wtk=  0.09375, kpt= -0.2500  0.5000  0.2500 (reduced coord)
  -0.06796   -0.06796    0.07016    0.07016    0.36861
 Total charge density [el/Bohr^3]
)     Maximum=    8.5979E-02  at reduced coord.    0.1000    0.1000    0.7000
)Next maximum=    8.5979E-02  at reduced coord.    0.1500    0.1500    0.5500
)     Minimum=    3.1382E-03  at reduced coord.    0.5000    0.5000    0.5000
)Next minimum=    3.1382E-03  at reduced coord.    0.7500    0.7500    0.7500
   Integrated=    8.0000E+00

 Cartesian components of stress tensor (hartree/bohr^3)
  sigma(1 1)=  5.08908278E-05  sigma(3 2)=  0.00000000E+00
  sigma(2 2)=  5.08908278E-05  sigma(3 1)=  0.00000000E+00
  sigma(3 3)=  5.08908278E-05  sigma(2 1)=  0.00000000E+00

-Cartesian components of stress tensor (GPa)         [Pressure= -1.4973E+00 GPa]
- sigma(1 1)=  1.49725959E+00  sigma(3 2)=  0.00000000E+00
- sigma(2 2)=  1.49725959E+00  sigma(3 1)=  0.00000000E+00
- sigma(3 3)=  1.49725959E+00  sigma(2 1)=  0.00000000E+00
 dataset: 1 , wall:  0.38 [s] , cpu:  0.38 [s] <<< TIME

== END DATASET(S) ==============================================================
================================================================================
  
 -outvars: echo values of variables after computation  --------
 
 These variables are accessible in NetCDF format (inputo_OUT.nc)

            acell      1.0000000000E+00  1.0000000000E+00  1.0000000000E+00 Bohr
              amu      2.80855000E+01
             ecut      8.00000000E+00 Hartree
           etotal     -8.8652901202E+00
            fcart     -0.0000000000E+00 -0.0000000000E+00 -0.0000000000E+00
                      -0.0000000000E+00 -0.0000000000E+00 -0.0000000000E+00
-          fftalg         312
           istwfk        2    0    3    0    0    0    7    0
              kpt      0.00000000E+00  0.00000000E+00  0.00000000E+00
                       2.50000000E-01  0.00000000E+00  0.00000000E+00
                       5.00000000E-01  0.00000000E+00  0.00000000E+00
                       2.50000000E-01  2.50000000E-01  0.00000000E+00
                       5.00000000E-01  2.50000000E-01  0.00000000E+00
                      -2.50000000E-01  2.50000000E-01  0.00000000E+00
                       5.00000000E-01  5.00000000E-01  0.00000000E+00
                      -2.50000000E-01  5.00000000E-01  2.50000000E-01
         kptrlatt        4    0    0      0    4    0      0    0    4
          kptrlen      2.90230928E+01
P           mkmem           8
            natom           2
            nband           5
            ngfft          20      20      20
             nkpt           8
             nsym          48
           ntypat           1
              occ      2.000000  2.000000  2.000000  2.000000  0.000000
            rprim      0.0000000000E+00  5.1306064284E+00  5.1306064284E+00
                       5.1306064284E+00  0.0000000000E+00  5.1306064284E+00
                       5.1306064284E+00  5.1306064284E+00  0.0000000000E+00
          spgroup         227
           strten      5.0890827788E-05  5.0890827788E-05  5.0890827788E-05
                       0.0000000000E+00  0.0000000000E+00  0.0000000000E+00
           symrel      1  0  0   0  1  0   0  0  1      -1  0  0   0 -1  0   0  0 -1
                       0 -1  1   0 -1  0   1 -1  0       0  1 -1   0  1  0  -1  1  0
                      -1  0  0  -1  0  1  -1  1  0       1  0  0   1  0 -1   1 -1  0
                       0  1 -1   1  0 -1   0  0 -1       0 -1  1  -1  0  1   0  0  1
                      -1  0  0  -1  1  0  -1  0  1       1  0  0   1 -1  0   1  0 -1
                       0 -1  1   1 -1  0   0 -1  0       0  1 -1  -1  1  0   0  1  0
                       1  0  0   0  0  1   0  1  0      -1  0  0   0  0 -1   0 -1  0
                       0  1 -1   0  0 -1   1  0 -1       0 -1  1   0  0  1  -1  0  1
                      -1  0  1  -1  1  0  -1  0  0       1  0 -1   1 -1  0   1  0  0
                       0 -1  0   1 -1  0   0 -1  1       0  1  0  -1  1  0   0  1 -1
                       1  0 -1   0  0 -1   0  1 -1      -1  0  1   0  0  1   0 -1  1
                       0  1  0   0  0  1   1  0  0       0 -1  0   0  0 -1  -1  0  0
                       1  0 -1   0  1 -1   0  0 -1      -1  0  1   0 -1  1   0  0  1
                       0 -1  0   0 -1  1   1 -1  0       0  1  0   0  1 -1  -1  1  0
                      -1  0  1  -1  0  0  -1  1  0       1  0 -1   1  0  0   1 -1  0
                       0  1  0   1  0  0   0  0  1       0 -1  0  -1  0  0   0  0 -1
                       0  0 -1   0  1 -1   1  0 -1       0  0  1   0 -1  1  -1  0  1
                       1 -1  0   0 -1  1   0 -1  0      -1  1  0   0  1 -1   0  1  0
                       0  0  1   1  0  0   0  1  0       0  0 -1  -1  0  0   0 -1  0
                      -1  1  0  -1  0  0  -1  0  1       1 -1  0   1  0  0   1  0 -1
                       0  0  1   0  1  0   1  0  0       0  0 -1   0 -1  0  -1  0  0
                       1 -1  0   0 -1  0   0 -1  1      -1  1  0   0  1  0   0  1 -1
                       0  0 -1   1  0 -1   0  1 -1       0  0  1  -1  0  1   0 -1  1
                      -1  1  0  -1  0  1  -1  0  0       1 -1  0   1  0 -1   1  0  0
            tnons      0.0000000  0.0000000  0.0000000     0.2500000  0.2500000  0.2500000
                       0.0000000  0.0000000  0.0000000     0.2500000  0.2500000  0.2500000
                       0.0000000  0.0000000  0.0000000     0.2500000  0.2500000  0.2500000
                       0.0000000  0.0000000  0.0000000     0.2500000  0.2500000  0.2500000
                       0.0000000  0.0000000  0.0000000     0.2500000  0.2500000  0.2500000
                       0.0000000  0.0000000  0.0000000     0.2500000  0.2500000  0.2500000
                       0.0000000  0.0000000  0.0000000     0.2500000  0.2500000  0.2500000
                       0.0000000  0.0000000  0.0000000     0.2500000  0.2500000  0.2500000
                       0.0000000  0.0000000  0.0000000     0.2500000  0.2500000  0.2500000
                       0.0000000  0.0000000  0.0000000     0.2500000  0.2500000  0.2500000
                       0.0000000  0.0000000  0.0000000     0.2500000  0.2500000  0.2500000
                       0.0000000  0.0000000  0.0000000     0.2500000  0.2500000  0.2500000
                       0.0000000  0.0000000  0.0000000     0.2500000  0.2500000  0.2500000
                       0.0000000  0.0000000  0.0000000     0.2500000  0.2500000  0.2500000
                       0.0000000  0.0000000  0.0000000     0.2500000  0.2500000  0.2500000
                       0.0000000  0.0000000  0.0000000     0.2500000  0.2500000  0.2500000
                       0.0000000  0.0000000  0.0000000     0.2500000  0.2500000  0.2500000
                       0.0000000  0.0000000  0.0000000     0.2500000  0.2500000  0.2500000
                       0.0000000  0.0000000  0.0000000     0.2500000  0.2500000  0.2500000
                       0.0000000  0.0000000  0.0000000     0.2500000  0.2500000  0.2500000
                       0.0000000  0.0000000  0.0000000     0.2500000  0.2500000  0.2500000
                       0.0000000  0.0000000  0.0000000     0.2500000  0.2500000  0.2500000
                       0.0000000  0.0000000  0.0000000     0.2500000  0.2500000  0.2500000
                       0.0000000  0.0000000  0.0000000     0.2500000  0.2500000  0.2500000
           toldfe      1.00000000E-08 Hartree
            typat      1  1
              wtk        0.01563    0.12500    0.06250    0.09375    0.37500    0.18750
                         0.04688    0.09375
           xangst      0.0000000000E+00  0.0000000000E+00  0.0000000000E+00
                       1.3574999941E+00  1.3574999941E+00  1.3574999941E+00
            xcart      0.0000000000E+00  0.0000000000E+00  0.0000000000E+00
                       2.5653032142E+00  2.5653032142E+00  2.5653032142E+00
             xred      0.0000000000E+00  0.0000000000E+00  0.0000000000E+00
                       2.5000000000E-01  2.5000000000E-01  2.5000000000E-01
            znucl       14.00000

================================================================================

 symlatt: the Bravais lattice is cF (face-centered cubic)
 symspgr: spgroup= 227  Fd -3 m   (=Oh^7)
 symspgr: optical characteristics = isotropic
 Symmetries : space group Fd -3 m (#227); Bravais cF (face-center cubic)

================================================================================
  
 Proc.   0 individual time (sec): cpu=          0.5  wall=          0.5

 Calculation completed.
.Delivered   0 WARNINGs and   2 COMMENTs to log file.

--- !FinalSummary
program: abinit
version: 10.0.3
start_datetime: Sun Sep 13 06:20:57 2026
end_datetime: Sun Sep 13 06:20:58 2026
overall_cpu_time:           0.5
overall_wall_time:           0.5
exit_requested_by_user: no 
timelimit: 0
pseudos: 
    Si  : 3916b143991b1cfa1542b130be320e5e
usepaw: 0
mpi_procs: 1
omp_threads: 1
num_warnings: 0
num_comments: 2
...
