    3
MD iter: 0
    O      0.00032747     -0.71181661      0.02917026      6.58771185      0.08736119      1.43267294      0.69584504
    H     -0.19725302      0.13515855      0.43429825      0.70482533    -12.63172754      8.76293264     -8.87820101
    H      0.19205190     -0.48613555     -0.89760761      0.70746282     11.24417532    -31.51798592     -2.17386157
    3
MD iter: 1
    O      0.00038225     -0.71110179      0.02947194      6.58860303      0.12430499      1.43624070      0.53875974
    H     -0.20373231      0.13991496      0.43036011      0.70484473    -13.17800438      9.93405681     -7.18662026
    H      0.19766104     -0.50224534     -0.89846101      0.70655224     11.20367616    -32.74577655     -1.37046655
    3
MD iter: 2
    O      0.00045177     -0.71038037      0.02970902      6.58957894      0.14421505      1.46355934      0.44193845
    H     -0.21043102      0.14509261      0.42711163      0.70491002    -13.48139352     10.36684233     -6.16144696
    H      0.20325558     -0.51888133     -0.89897808      0.70551104     11.19083507    -33.61246238     -0.85783340
    3
MD iter: 3
    O      0.00052647     -0.70963823      0.02991388      6.59065572      0.14433237      1.51998757      0.41015176
    H     -0.21721370      0.15028180      0.42419867      0.70493255    -13.50245515      9.96694789     -5.84950350
    H      0.20885188     -0.53585780     -0.89931885      0.70441173     11.21003331    -34.10881396     -0.66491089
    3
MD iter: 4
    O      0.00059611     -0.70886038      0.03011917      6.59184595      0.12482066      1.60396086      0.43995856
    H     -0.22393348      0.15505955      0.42126213      0.70482647    -13.23582213      8.77093505     -6.22762900
    H      0.21446561     -0.55299014     -0.89964299      0.70332758     11.25330353    -34.24654343     -0.76020492
    3
MD iter: 5
    O      0.00065129     -0.70803427      0.03035384      6.59315393      0.08873150      1.70774402      0.52061841
    H     -0.23044952      0.15905274      0.41797104      0.70452260    -12.70924384      6.92911900     -7.21378455
    H      0.22010518     -0.57010434     -0.90007905      0.70232347     11.29992707    -34.05310881     -1.05516456
    3
MD iter: 6
    O      0.00068484     -0.70715264      0.03063979      6.59457163      0.04156334      1.81881623      0.63597919
    H     -0.23664272      0.16198867      0.41404834      0.70397956    -11.97871441      4.67672490     -8.68309305
    H      0.22576554     -0.58704325     -0.90069815      0.70144880     11.31856656    -33.56486747     -1.41812406
    3
MD iter: 7
    O      0.00069285     -0.70621546      0.03098981      6.59607625     -0.00947294      1.92148786      0.76699815
    H     -0.24242824      0.16372946      0.40928794      0.70319019    -11.12144252      2.30134167    -10.48509152
    H      0.23142375     -0.60366921     -0.90149718      0.70073356     11.27190069    -32.82021132     -1.69709142
    3
MD iter: 8
    O      0.00067537     -0.70523115      0.03140679      6.59762966     -0.05636132      1.99856275      0.89450328
    H     -0.24776417      0.16429002      0.40356325      0.70218414    -10.22781184      0.11116404    -12.46025499
    H      0.23703744     -0.61986346     -0.90239524      0.70018620     11.12299510    -31.85420917     -1.74708381
    3
MD iter: 9
    O      0.00063649     -0.70421689      0.03188432      6.59918099     -0.09127240      2.03309913      1.00183749
    H     -0.25265605      0.16384063      0.39682769      0.70102501     -9.39253770     -1.59571309    -14.45548493
    H      0.24254674     -0.63552342     -0.90324426      0.69979400     10.84221139    -30.69587121     -1.45663631
    3
MD iter: 10
    O      0.00058409     -0.70319805      0.03240863      6.60067016     -0.10758304      2.01040602      1.07710388
    H     -0.25715670      0.16269430      0.38910777      0.69980025     -8.70456879     -2.56291539    -16.33911539
    H      0.24787965     -0.65055933     -0.90385188      0.69952958     10.41330339    -29.36823570     -0.76845711
    3
MD iter: 11
    O      0.00052891     -0.70220649      0.03296142      6.60203374     -0.10086470      1.92029212      1.11478739
    H     -0.26136062      0.16127771      0.38048857      0.69861234     -8.23545878     -2.60931531    -18.01551570
    H      0.25296004     -0.66489165     -0.90401272      0.69935392      9.83748642    -27.89056238      0.30941840
    3
MD iter: 12
    O      0.00048323     -0.70127776      0.03352341      6.60321088     -0.06973901      1.75930747      1.11656554
    H     -0.26539216      0.16008499      0.37109225      0.69756528     -8.02725637     -1.66129820    -19.43724006
    H      0.25771714     -0.67844989     -0.90354246      0.69922384      9.13491663    -26.28167051      1.70290042
    3
MD iter: 13
    O      0.00045917     -0.70044718      0.03407799      6.60414862     -0.01644358      1.53245258      1.09115787
    H     -0.26938787      0.15961641      0.36105133      0.69675199     -8.08229982      0.22339380    -20.61144818
    H      0.26209496     -0.69117332     -0.90230982      0.69909938      8.34347220    -24.56324083      3.28065705
    3
MD iter: 14
    O      0.00046679     -0.69974531      0.03461457      6.60480531      0.05304255      1.25385562      1.05316396
    H     -0.27347446      0.16030838      0.35048080      0.69624389     -8.35750259      2.84721291    -21.59803485
    H      0.26606061     -0.70301314     -0.90026180      0.69895080      7.51503120    -22.76212211      4.87069863
    3
MD iter: 15
    O      0.00051221     -0.69919333      0.03513115      6.60515213      0.12952009      0.94578568      1.02085395
    H     -0.27774538      0.16246363      0.33945330      0.69608352     -8.76683804      5.88934307    -22.49672358
    H      0.26960999     -0.71393545     -0.89743912      0.69876435      6.70967864    -20.91119686      6.28256505
    3
MD iter: 16
    O      0.00059631     -0.69879952      0.03563542      6.60517261      0.20184915      0.63570489      1.01305982
    H     -0.28224130      0.16619772      0.32798408      0.69628120     -9.19426388      8.95180303    -23.42352642
    H      0.27277029     -0.72392433     -0.89397924      0.69854619      5.98830673    -19.04866343      7.33316158
    3
MD iter: 17
    O      0.00071406     -0.69855762      0.03614421      6.60486555      0.25879567      0.35196016      1.04569854
    H     -0.28693964      0.17141543      0.31602977      0.69681305     -9.51469684     11.62574290    -24.48272420
    H      0.27559830     -0.73298411     -0.89010596      0.69832141      5.40426161    -17.21590377      7.87396074
    3
MD iter: 18
    O      0.00085510     -0.69844756      0.03668112      6.60423878      0.29104494      0.11920122      1.12863012
    H     -0.29175600      0.17782347      0.30350135      0.69762751     -9.61764349     13.56105874    -25.74247112
    H      0.27817455     -0.74114024     -0.88610528      0.69813371      4.99499514    -15.45432412      7.81651057
    3
MD iter: 19
    O      0.00100511     -0.69843842      0.03727284      6.60331602      0.29288380     -0.04528555      1.26355913
    H     -0.29655728      0.18497649      0.29028730      0.69864764     -9.42710538     14.52115929    -27.22067431
    H      0.28059329     -0.74843843     -0.88228945      0.69803634      4.77525059    -13.80189172      7.15164492
    3
MD iter: 20
    O      0.00114798     -0.69849285      0.03794468      6.60213355      0.26313892     -0.13345073      1.44341820
    H     -0.30118310      0.19234463      0.27628068      0.69978158     -8.91260458     14.40966578    -28.88411795
    H      0.28294980     -0.75494213     -0.87895363      0.69808486      4.73318583    -12.29007621      5.95839828
