9

C      -0.874215124592217      0.228803788799431      0.033592189296871
C       0.436262932464053     -0.472544517993238     -0.257583359758155
O       1.413764229420816     -0.091351483823499      0.699541247189730
H      -1.643015052140807     -0.067098949729424     -0.685615513313559
H      -0.749751857245391      1.315762683756456     -0.011029141372495
H      -1.223153605105852     -0.010463350730742      1.043494768472964
H       0.804359678811764     -0.217927710183442     -1.256063857281623
H       0.310133768290902     -1.557729517148505     -0.202722931581572
H       1.525615030096712      0.872549057052958      0.636386598347847
