9
 energy: -11.394338680215 gnorm: 0.000486354755 xtb: 6.7.1 (edcfbbe)
C           -0.88720885954080        0.24004970397625        0.03285319612609
C            0.44150098437259       -0.45146437724417       -0.25542269429911
O            1.44344101830197       -0.11780091213931        0.67596994574588
H           -1.64104739615657       -0.09186018004901       -0.67560036943247
H           -0.78138484814581        1.32086143002533       -0.05254906829993
H           -1.22069357600539        0.00253296411788        1.04020928935415
H            0.77322903676710       -0.20786125361794       -1.27611262287660
H            0.32812243426101       -1.53531796488206       -0.18057884221885
H            1.54404120614589        0.84086058981302        0.69123116590084
