9

C      -0.891896240421251      0.112547435305349      0.097908315978208
C       0.501005634661267     -0.477841208119617      0.025173123389960
O       1.349314343956215      0.372115523279177     -0.733015883761069
H      -1.302898603220426      0.255040814107811     -0.906921664896117
H      -0.870320308828784      1.097561380991359      0.575657123690721
H      -1.562402439867020     -0.538990301230086      0.665175039847175
H       0.928508979736934     -0.599449101416716      1.025043340973891
H       0.476710660363595     -1.457362333881768     -0.461132670848828
H       1.371977973619482      1.236377790964487     -0.287886724373949
