9
 energy: -11.394338680134 gnorm: 0.000486405860 xtb: 6.7.1 (edcfbbe)
C           -0.90580738786985        0.12085245421821        0.10368447983467
C            0.50395953809993       -0.45717888740189        0.03156221538989
O            1.38337116933508        0.34236784564915       -0.72346588602907
H           -1.30143573423456        0.26584094218398       -0.89873714570660
H           -0.89854607549972        1.08168177830978        0.61691010993504
H           -1.55891958829537       -0.55723933916951        0.64588293017508
H            0.89842043052769       -0.60218113192931        1.04869981523432
H            0.49042796600562       -1.42592625793002       -0.47295770335650
H            1.38852968193118        1.23178259606960       -0.35157881547684
