 Entering Gaussian System
 *********************************************
 Gaussian 98:
 frequency output generated by the xtb code
 *********************************************
                         Standard orientation:
 --------------------------------------------------------------------
  Center     Atomic     Atomic              Coordinates (Angstroms)
  Number     Number      Type              X           Y           Z
 --------------------------------------------------------------------
    1          8             0       -0.000005   -1.000000    0.000002
    2          1             0        0.000003    0.000001    0.783064
    3          1             0       -0.000003   -0.000001   -0.783064
 --------------------------------------------------------------------
     1 basis functions        1 primitive gaussians
     1 alpha electrons        1 beta electrons

 Harmonic frequencies (cm**-1), IR intensities (km*mol⁻¹),
 Raman scattering activities (A**4/amu), Raman depolarization ratios,
 reduced masses (AMU), force constants (mDyne/A) and normal coordinates:
                      1                      2                      3
                        a                      a                      a 
 Frequencies --   819.4274              1100.2320              1656.7098
 Red. masses --     2.6438                 1.6931                 1.0496
 Frc consts  --     0.0000                 0.0000                 0.0000
 IR Inten    --    18.0754                 0.2453                62.1023
 Raman Activ --     0.0000                 0.0000                 0.0000
 Depolar     --     0.0000                 0.0000                 0.0000
 Atom AN      X      Y      Z        X      Y      Z        X      Y      Z
   1   8    -0.00  -0.33   0.00    -0.00  -0.00  -0.21    -0.00  -0.05   0.00
   2   1     0.00   0.66   0.11     0.00   0.54   0.43    -0.00   0.10  -0.70
   3   1     0.00   0.66  -0.11    -0.00  -0.54   0.43     0.00   0.10   0.70
