      -----------------------------------------------------------      
     |                   =====================                   |     
     |                           x T B                           |     
     |                   =====================                   |     
     |                         S. Grimme                         |     
     |          Mulliken Center for Theoretical Chemistry        |     
     |                    University of Bonn                     |     
      -----------------------------------------------------------      

   * xtb version 6.7.1 (edcfbbe) compiled by 'conda@5dfe00f5fb80' on 2026-06-10

   xtb is free software: you can redistribute it and/or modify it under
   the terms of the GNU Lesser General Public License as published by
   the Free Software Foundation, either version 3 of the License, or
   (at your option) any later version.
   
   xtb is distributed in the hope that it will be useful,
   but WITHOUT ANY WARRANTY; without even the implied warranty of
   MERCHANTABILITY or FITNESS FOR A PARTICULAR PURPOSE.  See the
   GNU Lesser General Public License for more details.
   
   Cite this work as:
   * C. Bannwarth, E. Caldeweyher, S. Ehlert, A. Hansen, P. Pracht,
     J. Seibert, S. Spicher, S. Grimme, WIREs Comput. Mol. Sci., 2020, 11,
     e01493. DOI: 10.1002/wcms.1493
   
   for GFN2-xTB:
   * C. Bannwarth, S. Ehlert and S. Grimme., J. Chem. Theory Comput., 2019,
     15, 1652-1671. DOI: 10.1021/acs.jctc.8b01176
   for GFN1-xTB:
   * S. Grimme, C. Bannwarth, P. Shushkov, J. Chem. Theory Comput., 2017,
     13, 1989-2009. DOI: 10.1021/acs.jctc.7b00118
   for GFN0-xTB:
   * P. Pracht, E. Caldeweyher, S. Ehlert, S. Grimme, ChemRxiv, 2019, preprint.
     DOI: 10.26434/chemrxiv.8326202.v1
   for GFN-FF:
   * S. Spicher and S. Grimme, Angew. Chem. Int. Ed., 2020, 59, 15665-15673.
     DOI: 10.1002/anie.202004239
   
   for ALPB and GBSA implicit solvation:
   * S. Ehlert, M. Stahn, S. Spicher, S. Grimme, J. Chem. Theory Comput.,
     2021, 17, 4250-4261. DOI: 10.1021/acs.jctc.1c00471
   
   for ddCOSMO and CPCM-X implicit solvation:
   * M. Stahn, S. Ehlert, S. Grimme, J. Phys. Chem. A,
     2023, XX, XXXX-XXXX. DOI: 10.1021/acs.jpca.3c04382
   
   for DFT-D4:
   * E. Caldeweyher, C. Bannwarth and S. Grimme, J. Chem. Phys., 2017,
     147, 034112. DOI: 10.1063/1.4993215
   * E. Caldeweyher, S. Ehlert, A. Hansen, H. Neugebauer, S. Spicher,
     C. Bannwarth and S. Grimme, J. Chem. Phys., 2019, 150, 154122.
     DOI: 10.1063/1.5090222
   * E. Caldeweyher, J.-M. Mewes, S. Ehlert and S. Grimme, Phys. Chem. Chem. Phys.
     2020, 22, 8499-8512. DOI: 10.1039/D0CP00502A
   
   for sTDA-xTB:
   * S. Grimme and C. Bannwarth, J. Chem. Phys., 2016, 145, 054103.
     DOI: 10.1063/1.4959605
   
   in the mass-spec context:
   * V. Asgeirsson, C. Bauer and S. Grimme, Chem. Sci., 2017, 8, 4879.
     DOI: 10.1039/c7sc00601b
   * J. Koopman and S. Grimme, ACS Omega 2019, 4, 12, 15120-15133.
     DOI: 10.1021/acsomega.9b02011
   
   for metadynamics refer to:
   * S. Grimme, J. Chem. Theory Comput., 2019, 155, 2847-2862
     DOI: 10.1021/acs.jctc.9b00143
   
   for SPH calculations refer to:
   * S. Spicher and S. Grimme, J. Chem. Theory Comput., 2021, 17, 1701-1714
     DOI: 10.1021/acs.jctc.0c01306
   
   for ONIOM refer to:
   * C. Plett, A. Katbashev, S. Ehlert, S. Grimme, M. Bursch,
     Phys. Chem. Chem. Phys., 2023, 25, 17860-17868. DOI: 10.1039/D3CP02178E
   
   for DIPRO refer to:
   * J. Kohn, N. Gildemeister, S. Grimme, D. Fazzi, A. Hansen,
     J. Chem. Phys., 2023, just accepted.
   
   for PTB refer to:
   * S. Grimme, M. Mueller, A. Hansen, J. Chem. Phys., 2023, 158, 124111.
     DOI: 10.1063/5.0137838
   
   with help from (in alphabetical order)
   P. Atkinson, C. Bannwarth, F. Bohle, G. Brandenburg, E. Caldeweyher
   M. Checinski, S. Dohm, S. Ehlert, S. Ehrlich, I. Gerasimov, C. Hölzer
   A. Katbashev, J. Kohn, J. Koopman, C. Lavigne, S. Lehtola, F. März, M. Müller,
   F. Musil, H. Neugebauer, J. Pisarek, C. Plett, P. Pracht, F. Pultar,
   J. Seibert, P. Shushkov, S. Spicher, M. Stahn, M. Steiner, T. Strunk,
   J. Stückrath, T. Rose, and J. Unsleber
   
 * started run on 2026/09/10 at 17:58:20.705     
   ID    Z sym.   atoms
    1    8 O      1
    2    1 H      2, 3

           -------------------------------------------------
          |                Calculation Setup                |
           -------------------------------------------------

          program call               : xtb struct.xyz --gfn 2 --chrg 0 --uhf 0 --acc 1 --etemp 300 --input xtb.inp --parallel 4 --hess --json
          coordinate file            : struct.xyz
          omp threads                :                     4


molecular fragmentation (1/2 indicates fragments):
122
# atoms in fragment 1/2:     1     2
 fragment masses (1/2) :       16.00        2.02
CMA distance (Bohr)    :   1.890
constraining FC (au)   :  0.0500

           -------------------------------------------------
          |                 G F N 2 - x T B                 |
           -------------------------------------------------

        Reference                      10.1021/acs.jctc.8b01176
      * Hamiltonian:
        H0-scaling (s, p, d)           1.850000    2.230000    2.230000
        zeta-weighting                 0.500000
      * Dispersion:
        s8                             2.700000
        a1                             0.520000
        a2                             5.000000
        s9                             5.000000
      * Repulsion:
        kExp                           1.500000    1.000000
        rExp                           1.000000
      * Coulomb:
        alpha                          2.000000
        third order                    shell-resolved
        anisotropic                    true
        a3                             3.000000
        a5                             4.000000
        cn-shift                       1.200000
        cn-exp                         4.000000
        max-rad                        5.000000


          ...................................................
          :                      SETUP                      :
          :.................................................:
          :  # basis functions                   6          :
          :  # atomic orbitals                   6          :
          :  # shells                            4          :
          :  # electrons                         8          :
          :  max. iterations                   250          :
          :  Hamiltonian                  GFN2-xTB          :
          :  restarted?                      false          :
          :  GBSA solvation                  false          :
          :  PC potential                    false          :
          :  electronic temp.          300.0000000     K    :
          :  accuracy                    1.0000000          :
          :  -> integral cutoff          0.2500000E+02      :
          :  -> integral neglect         0.1000000E-07      :
          :  -> SCF convergence          0.1000000E-05 Eh   :
          :  -> wf. convergence          0.1000000E-03 e    :
          :  Broyden damping             0.4000000          :
          :  net charge                          0          :
          :  unpaired electrons                  0          :
          ...................................................

 iter      E             dE          RMSdq      gap      omega  full diag
   1     -4.9701761 -0.497018E+01  0.353E+00    7.08       0.0  T
   2     -4.9800005 -0.982433E-02  0.135E+00    6.37       1.0  T
   3     -4.9800049 -0.438985E-05  0.699E-01    6.34       1.0  T
   4     -4.9800053 -0.473219E-06  0.120E-02    6.34       4.8  T
   5     -4.9800053 -0.617746E-08  0.460E-03    6.34      12.5  T
   6     -4.9800053 -0.222453E-08  0.838E-04    6.34      68.9  T
   7     -4.9800053 -0.330451E-09  0.295E-05    6.34    1958.3  T

   *** convergence criteria satisfied after 7 iterations ***

         #    Occupation            Energy/Eh            Energy/eV
      -------------------------------------------------------------
         1        2.0000           -0.6492719             -17.6676
         2        2.0000           -0.5283840             -14.3781
         3        2.0000           -0.5032334             -13.6937
         4        2.0000           -0.4363252             -11.8730 (HOMO)
         5                         -0.2033974              -5.5347 (LUMO)
         6                         -0.1520230              -4.1368
      -------------------------------------------------------------
                  HL-Gap            0.2329278 Eh            6.3383 eV
             Fermi-level           -0.3198613 Eh           -8.7039 eV

 SCC (total)                   0 d,  0 h,  0 min,  0.006 sec
 SCC setup                      ...        0 min,  0.000 sec (  3.222%)
 Dispersion                     ...        0 min,  0.000 sec (  0.979%)
 classical contributions        ...        0 min,  0.000 sec (  0.730%)
 integral evaluation            ...        0 min,  0.000 sec (  4.562%)
 iterations                     ...        0 min,  0.005 sec ( 81.458%)
 molecular gradient             ...        0 min,  0.000 sec (  6.075%)
 printout                       ...        0 min,  0.000 sec (  2.374%)

         :::::::::::::::::::::::::::::::::::::::::::::::::::::
         ::                     SUMMARY                     ::
         :::::::::::::::::::::::::::::::::::::::::::::::::::::
         :: total energy              -4.977864911515 Eh    ::
         :: gradient norm              0.219471841929 Eh/a0 ::
         :: HOMO-LUMO gap              6.338289327814 eV    ::
         ::.................................................::
         :: SCC energy                -4.980005346652 Eh    ::
         :: -> isotropic ES            0.032780106745 Eh    ::
         :: -> anisotropic ES          0.005261220092 Eh    ::
         :: -> anisotropic XC          0.001801731416 Eh    ::
         :: -> dispersion             -0.000214784451 Eh    ::
         :: repulsion energy           0.002140435136 Eh    ::
         :: add. restraining           0.000000000000 Eh    ::
         :: total charge               0.000000000000 e     ::
         :::::::::::::::::::::::::::::::::::::::::::::::::::::

           ------------------------------------------------- 
          |                Numerical Hessian                |
           ------------------------------------------------- 
step length          :   0.00500
SCC accuracy         :   0.30000
Hessian scale factor :   1.00000
frozen atoms in %    :   0.00000    0
RMS gradient         :   0.21947 !! INCOMPLETELY OPTIMIZED GEOMETRY !!
estimated CPU  time      0.00 min
estimated wall time      0.00 min

writing file <hessian>.

 projected vibrational frequencies (cm⁻¹)
eigval :       -0.00    -0.00     0.00     0.00     0.00     0.00
eigval :      819.43  1100.23  1656.71
           -------------------------------------------------
          |                Property Printout                |
           -------------------------------------------------

    * Orbital Energies and Occupations

         #    Occupation            Energy/Eh            Energy/eV
      -------------------------------------------------------------
         1        2.0000           -0.6492722             -17.6676
         2        2.0000           -0.5283843             -14.3781
         3        2.0000           -0.5032336             -13.6937
         4        2.0000           -0.4363256             -11.8730 (HOMO)
         5                         -0.2033975              -5.5347 (LUMO)
         6                         -0.1520231              -4.1368
      -------------------------------------------------------------
                  HL-Gap            0.2329281 Eh            6.3383 eV
             Fermi-level           -0.3198616 Eh           -8.7039 eV

     #   Z          covCN         q      C6AA      α(0)
     1   8 O        0.791    -0.503    23.892     6.552
     2   1 H        0.395     0.252     1.755     2.360
     3   1 H        0.395     0.252     1.755     2.360

 Mol. C6AA /au·bohr⁶  :         55.618726
 Mol. C8AA /au·bohr⁸  :        952.904449
 Mol. α(0) /au        :         11.271615
Molecule has the following symmetry elements: (C2) 2*(sigma) 
It seems to be the C2v point group


Wiberg/Mayer (AO) data.
largest (>0.10) Wiberg bond orders for each atom

 ---------------------------------------------------------------------------
     #   Z sym  total        # sym  WBO       # sym  WBO       # sym  WBO
 ---------------------------------------------------------------------------
     1   8 O    1.822 --     3 H    0.911     2 H    0.911
     2   1 H    0.937 --     1 O    0.911
     3   1 H    0.937 --     1 O    0.911
 ---------------------------------------------------------------------------

Topologies differ in total number of bonds
Writing topology from bond orders to xtbtopo.mol

molecular dipole:
                 x           y           z       tot (Debye)
 q only:        0.000       0.951      -0.000
   full:        0.000       1.137      -0.000       2.890
molecular quadrupole (traceless):
                xx          xy          yy          xz          yz          zz
 q only:        0.348      -0.000      -2.348       0.000       0.000       2.001
  q+dip:        0.074      -0.000      -2.389       0.000       0.000       2.315
   full:       -0.074      -0.000      -2.370       0.000       0.000       2.444

           -------------------------------------------------
          |               Frequency Printout                |
           -------------------------------------------------
 projected vibrational frequencies (cm⁻¹)
eigval :       -0.00    -0.00     0.00     0.00     0.00     0.00
eigval :      819.43  1100.23  1656.71
 reduced masses (amu)
   1:  5.10   2: 15.05   3: 14.00   4: 11.63   5:  1.33   6:  1.55   7:  2.64   8:  1.69
   9:  1.05
 IR intensities (km·mol⁻¹)
   1:184.55   2: 16.25   3:  4.70   4:  9.95   5:  2.43   6: 95.99   7: 18.08   8:  0.25
   9: 62.10
 Raman intensities (Ä⁴*amu⁻¹)
   1:  0.00   2:  0.00   3:  0.00   4:  0.00   5:  0.00   6:  0.00   7:  0.00   8:  0.00
   9:  0.00
 output can be read by thermo (or use thermo option).
 writing <g98.out> molden fake output.
 recommended (thermochemical) frequency scaling factor: 1.0
           -------------------------------------------------
          |             Thermodynamic Functions             |
           -------------------------------------------------

c2v symmetry found (for desy threshold:  0.10E+00) used in thermo

          ...................................................
          :                      SETUP                      :
          :.................................................:
          :  # frequencies                           3      :
          :  # imaginary freq.                       0      :
          :  linear?                             false      :
          :  only rotor calc.                    false      :
          :  symmetry                              c2v      :
          :  rotational number                       2      :
          :  scaling factor                  1.0000000      :
          :  rotor cutoff                   50.0000000 cm⁻¹ :
          :  imag. cutoff                  -20.0000000 cm⁻¹ :
          :.................................................:

    mode    ω/cm⁻¹     T·S(HO)/kcal·mol⁻¹    T·S(FR)/kcal·mol⁻¹   T·S(vib)
   ------------------------------------------------------------------------
   ------------------------------------------------------------------------

   temp. (K)  partition function   enthalpy   heat capacity  entropy
                                   cal/mol     cal/K/mol   cal/K/mol   J/K/mol
 298.15  VIB   1.02                   63.028      0.942      0.260
         ROT   98.8                  888.752      2.981     12.110
         INT   101.                  951.781      3.923     12.370
         TR   0.740E+26             1481.254      4.968     34.593
         TOT                        2433.0345     8.8910    46.9633   196.4946

       T/K    H(0)-H(T)+PV         H(T)/Eh          T*S/Eh         G(T)/Eh
   ------------------------------------------------------------------------
    298.15    0.387729E-02    0.120249E-01    0.223138E-01   -0.102889E-01
   ------------------------------------------------------------------------
Note: The following floating-point exceptions are signalling: IEEE_DENORMAL
normal termination of xtb

         :::::::::::::::::::::::::::::::::::::::::::::::::::::
         ::                  THERMODYNAMIC                  ::
         :::::::::::::::::::::::::::::::::::::::::::::::::::::
         :: total free energy          -4.988153848206 Eh   ::
         ::.................................................::
         :: total energy               -4.977864911517 Eh   ::
         :: zero point energy           0.008147568762 Eh   ::
         :: G(RRHO) w/o ZPVE           -0.018436505451 Eh   ::
         :: G(RRHO) contrib.           -0.010288936689 Eh   ::
         :::::::::::::::::::::::::::::::::::::::::::::::::::::

           -------------------------------------------------
          | TOTAL ENERGY               -4.977864911517 Eh   |
          | TOTAL ENTHALPY             -4.965840055468 Eh   |
          | TOTAL FREE ENERGY          -4.988153848206 Eh   |
          | GRADIENT NORM               0.219471895834 Eh/α |
          | HOMO-LUMO GAP               6.338296838824 eV   |
           -------------------------------------------------
########################################################################
[WARNING] Runtime exception occurred
-1- hessian_numhess: Hessian on incompletely optimized geometry!
########################################################################

------------------------------------------------------------------------
 * finished run on 2026/09/10 at 17:58:20.738     
------------------------------------------------------------------------
 total:
 * wall-time:     0 d,  0 h,  0 min,  0.034 sec
 *  cpu-time:     0 d,  0 h,  0 min,  0.209 sec
 * ratio c/w:     6.198 speedup
 SCF:
 * wall-time:     0 d,  0 h,  0 min,  0.006 sec
 *  cpu-time:     0 d,  0 h,  0 min,  0.034 sec
 * ratio c/w:     5.856 speedup
 analytical hessian:
 * wall-time:     0 d,  0 h,  0 min,  0.009 sec
 *  cpu-time:     0 d,  0 h,  0 min,  0.076 sec
 * ratio c/w:     8.061 speedup

