adit: O H (3 atoms)                    
   1.0000000000000000     
     7.9376999999999995    0.0000000000000000    0.0000000000000000
     0.0000000000000000    7.9376999999999995    0.0000000000000000
     0.0000000000000000    0.0000000000000000    7.9376999999999995
   O    H 
     1     2
Selective dynamics
Direct
  0.0000000000000000  0.0000000000000000  0.0000000000000000   F   F   F
  0.0751226311729030  0.9031674908670596 -0.0000000000000000   T   T   T
  0.0751226311729030  0.0968325091329403 -0.0000000000000000   T   T   T

  0.00000000E+00  0.00000000E+00  0.00000000E+00
  0.00000000E+00  0.00000000E+00  0.00000000E+00
  0.00000000E+00  0.00000000E+00  0.00000000E+00
