   3   3   0   0
  0.1667104E+03  0.7937700E-09  0.7937700E-09  0.7937700E-09  0.5000000E-15
   1.0000000000000000E-004
  CAR 
 adit O H                               
      9.22024363    -26.74629166  301     -6.47765042      1.00000000
    -26.746  0.0000E+00  0.0000E+00
    -26.626  0.0000E+00  0.0000E+00
    -26.507  0.0000E+00  0.0000E+00
    -26.387  0.0000E+00  0.0000E+00
    -26.267  0.0000E+00  0.0000E+00
    -26.147  0.0000E+00  0.0000E+00
    -26.027  0.0000E+00  0.0000E+00
    -25.907  0.0000E+00  0.0000E+00
    -25.787  0.0000E+00  0.0000E+00
    -25.667  0.3149E-14  0.3775E-15
    -25.547  0.5865E-09  0.7032E-10
    -25.428  0.6527E-05  0.7826E-06
    -25.308  0.4606E-02  0.5530E-03
    -25.188  0.2294E+00  0.2806E-01
    -25.068  0.9858E+00  0.1462E+00
    -24.948  0.4310E+00  0.1979E+00
    -24.828  0.1728E-01  0.2000E+00
    -24.708  0.5118E-04  0.2000E+00
    -24.588  0.9820E-08  0.2000E+00
    -24.468  0.1148E-12  0.2000E+00
    -24.349  0.0000E+00  0.2000E+00
    -24.229  0.0000E+00  0.2000E+00
    -24.109  0.0000E+00  0.2000E+00
    -23.989  0.0000E+00  0.2000E+00
    -23.869  0.0000E+00  0.2000E+00
    -23.749  0.0000E+00  0.2000E+00
    -23.629  0.0000E+00  0.2000E+00
    -23.509  0.0000E+00  0.2000E+00
    -23.389  0.0000E+00  0.2000E+00
    -23.270  0.0000E+00  0.2000E+00
    -23.150  0.0000E+00  0.2000E+00
    -23.030  0.0000E+00  0.2000E+00
    -22.910  0.0000E+00  0.2000E+00
    -22.790  0.0000E+00  0.2000E+00
    -22.670  0.0000E+00  0.2000E+00
    -22.550  0.0000E+00  0.2000E+00
    -22.430  0.0000E+00  0.2000E+00
    -22.310  0.0000E+00  0.2000E+00
    -22.191  0.0000E+00  0.2000E+00
    -22.071  0.0000E+00  0.2000E+00
    -21.951  0.0000E+00  0.2000E+00
    -21.831  0.0000E+00  0.2000E+00
    -21.711  0.0000E+00  0.2000E+00
    -21.591  0.0000E+00  0.2000E+00
    -21.471  0.0000E+00  0.2000E+00
    -21.351  0.0000E+00  0.2000E+00
    -21.231  0.0000E+00  0.2000E+00
    -21.112  0.0000E+00  0.2000E+00
    -20.992  0.0000E+00  0.2000E+00
    -20.872  0.0000E+00  0.2000E+00
    -20.752  0.0000E+00  0.2000E+00
    -20.632  0.0000E+00  0.2000E+00
    -20.512  0.0000E+00  0.2000E+00
    -20.392  0.0000E+00  0.2000E+00
    -20.272  0.0000E+00  0.2000E+00
    -20.152  0.0000E+00  0.2000E+00
    -20.033  0.0000E+00  0.2000E+00
    -19.913  0.0000E+00  0.2000E+00
    -19.793  0.0000E+00  0.2000E+00
    -19.673  0.0000E+00  0.2000E+00
    -19.553  0.0000E+00  0.2000E+00
    -19.433  0.0000E+00  0.2000E+00
    -19.313  0.0000E+00  0.2000E+00
    -19.193  0.0000E+00  0.2000E+00
    -19.073  0.0000E+00  0.2000E+00
    -18.954  0.0000E+00  0.2000E+00
    -18.834  0.0000E+00  0.2000E+00
    -18.714  0.0000E+00  0.2000E+00
    -18.594  0.0000E+00  0.2000E+00
    -18.474  0.0000E+00  0.2000E+00
    -18.354  0.0000E+00  0.2000E+00
    -18.234  0.0000E+00  0.2000E+00
    -18.114  0.0000E+00  0.2000E+00
    -17.994  0.0000E+00  0.2000E+00
    -17.875  0.0000E+00  0.2000E+00
    -17.755  0.0000E+00  0.2000E+00
    -17.635  0.0000E+00  0.2000E+00
    -17.515  0.0000E+00  0.2000E+00
    -17.395  0.0000E+00  0.2000E+00
    -17.275  0.0000E+00  0.2000E+00
    -17.155  0.0000E+00  0.2000E+00
    -17.035  0.0000E+00  0.2000E+00
    -16.915  0.0000E+00  0.2000E+00
    -16.796  0.0000E+00  0.2000E+00
    -16.676  0.0000E+00  0.2000E+00
    -16.556  0.0000E+00  0.2000E+00
    -16.436  0.0000E+00  0.2000E+00
    -16.316  0.0000E+00  0.2000E+00
    -16.196  0.0000E+00  0.2000E+00
    -16.076  0.0000E+00  0.2000E+00
    -15.956  0.0000E+00  0.2000E+00
    -15.836  0.0000E+00  0.2000E+00
    -15.717  0.0000E+00  0.2000E+00
    -15.597  0.0000E+00  0.2000E+00
    -15.477  0.0000E+00  0.2000E+00
    -15.357  0.0000E+00  0.2000E+00
    -15.237  0.0000E+00  0.2000E+00
    -15.117  0.0000E+00  0.2000E+00
    -14.997  0.0000E+00  0.2000E+00
    -14.877  0.0000E+00  0.2000E+00
    -14.757  0.0000E+00  0.2000E+00
    -14.638  0.0000E+00  0.2000E+00
    -14.518  0.0000E+00  0.2000E+00
    -14.398  0.0000E+00  0.2000E+00
    -14.278  0.0000E+00  0.2000E+00
    -14.158  0.0000E+00  0.2000E+00
    -14.038  0.0000E+00  0.2000E+00
    -13.918  0.0000E+00  0.2000E+00
    -13.798  0.0000E+00  0.2000E+00
    -13.678  0.0000E+00  0.2000E+00
    -13.559  0.0000E+00  0.2000E+00
    -13.439  0.3260E-13  0.2000E+00
    -13.319  0.3665E-08  0.2000E+00
    -13.199  0.2506E-04  0.2000E+00
    -13.079  0.1101E-01  0.2013E+00
    -12.959  0.3511E+00  0.2434E+00
    -12.839  0.1005E+01  0.3639E+00
    -12.719  0.2936E+00  0.3991E+00
    -12.599  0.7565E-02  0.4000E+00
    -12.480  0.1397E-04  0.4000E+00
    -12.360  0.1649E-08  0.4000E+00
    -12.240  0.1185E-13  0.4000E+00
    -12.120  0.0000E+00  0.4000E+00
    -12.000  0.0000E+00  0.4000E+00
    -11.880  0.0000E+00  0.4000E+00
    -11.760  0.0000E+00  0.4000E+00
    -11.640  0.0000E+00  0.4000E+00
    -11.520  0.0000E+00  0.4000E+00
    -11.401  0.0000E+00  0.4000E+00
    -11.281  0.0000E+00  0.4000E+00
    -11.161  0.0000E+00  0.4000E+00
    -11.041  0.0000E+00  0.4000E+00
    -10.921  0.0000E+00  0.4000E+00
    -10.801  0.0000E+00  0.4000E+00
    -10.681  0.0000E+00  0.4000E+00
    -10.561  0.0000E+00  0.4000E+00
    -10.441  0.0000E+00  0.4000E+00
    -10.322  0.0000E+00  0.4000E+00
    -10.202  0.0000E+00  0.4000E+00
    -10.082  0.0000E+00  0.4000E+00
     -9.962  0.0000E+00  0.4000E+00
     -9.842  0.0000E+00  0.4000E+00
     -9.722  0.0000E+00  0.4000E+00
     -9.602  0.3804E-12  0.4000E+00
     -9.482  0.2490E-07  0.4000E+00
     -9.362  0.9979E-04  0.4000E+00
     -9.243  0.2613E-01  0.4031E+00
     -9.123  0.5147E+00  0.4648E+00
     -9.003  0.9479E+00  0.5785E+00
     -8.883  0.1766E+00  0.5997E+00
     -8.763  0.2778E-02  0.6000E+00
     -8.643  0.3041E-05  0.6000E+00
     -8.523  0.2098E-09  0.6000E+00
     -8.403  0.7408E-15  0.6000E+00
     -8.283  0.0000E+00  0.6000E+00
     -8.164  0.0000E+00  0.6000E+00
     -8.044  0.0000E+00  0.6000E+00
     -7.924  0.0000E+00  0.6000E+00
     -7.804  0.0000E+00  0.6000E+00
     -7.684  0.0000E+00  0.6000E+00
     -7.564  0.1148E-13  0.6000E+00
     -7.444  0.1618E-08  0.6000E+00
     -7.324  0.1378E-04  0.6000E+00
     -7.204  0.7498E-02  0.6009E+00
     -7.085  0.2923E+00  0.6359E+00
     -6.965  0.1005E+01  0.7564E+00
     -6.845  0.3525E+00  0.7987E+00
     -6.725  0.1110E-01  0.8000E+00
     -6.605  0.2539E-04  0.8000E+00
     -6.485  0.3734E-08  0.8000E+00
     -6.365  0.3334E-13  0.8000E+00
     -6.245  0.0000E+00  0.8000E+00
     -6.125  0.0000E+00  0.8000E+00
     -6.006  0.0000E+00  0.8000E+00
     -5.886  0.0000E+00  0.8000E+00
     -5.766  0.0000E+00  0.8000E+00
     -5.646  0.0000E+00  0.8000E+00
     -5.526  0.0000E+00  0.8000E+00
     -5.406  0.0000E+00  0.8000E+00
     -5.286  0.0000E+00  0.8000E+00
     -5.166  0.0000E+00  0.8000E+00
     -5.046  0.0000E+00  0.8000E+00
     -4.927  0.0000E+00  0.8000E+00
     -4.807  0.0000E+00  0.8000E+00
     -4.687  0.0000E+00  0.8000E+00
     -4.567  0.0000E+00  0.8000E+00
     -4.447  0.0000E+00  0.8000E+00
     -4.327  0.0000E+00  0.8000E+00
     -4.207  0.0000E+00  0.8000E+00
     -4.087  0.0000E+00  0.8000E+00
     -3.967  0.0000E+00  0.8000E+00
     -3.848  0.0000E+00  0.8000E+00
     -3.728  0.0000E+00  0.8000E+00
     -3.608  0.0000E+00  0.8000E+00
     -3.488  0.0000E+00  0.8000E+00
     -3.368  0.0000E+00  0.8000E+00
     -3.248  0.0000E+00  0.8000E+00
     -3.128  0.0000E+00  0.8000E+00
     -3.008  0.0000E+00  0.8000E+00
     -2.888  0.0000E+00  0.8000E+00
     -2.769  0.0000E+00  0.8000E+00
     -2.649  0.0000E+00  0.8000E+00
     -2.529  0.0000E+00  0.8000E+00
     -2.409  0.0000E+00  0.8000E+00
     -2.289  0.0000E+00  0.8000E+00
     -2.169  0.0000E+00  0.8000E+00
     -2.049  0.0000E+00  0.8000E+00
     -1.929  0.0000E+00  0.8000E+00
     -1.809  0.0000E+00  0.8000E+00
     -1.690  0.0000E+00  0.8000E+00
     -1.570  0.1316E-11  0.8000E+00
     -1.450  0.6493E-07  0.8000E+00
     -1.330  0.1971E-03  0.8000E+00
     -1.210  0.3949E-01  0.8048E+00
     -1.090  0.6069E+00  0.8775E+00
     -0.970  0.8894E+00  0.9841E+00
     -0.850  0.1307E+00  0.9998E+00
     -0.730  0.1584E-02  0.1000E+01
     -0.611  0.1318E-05  0.1000E+01
     -0.491  0.6866E-10  0.1000E+01
     -0.371  0.1852E-15  0.1000E+01
     -0.251  0.0000E+00  0.1000E+01
     -0.131  0.0000E+00  0.1000E+01
     -0.011  0.0000E+00  0.1000E+01
      0.109  0.0000E+00  0.1000E+01
      0.229  0.0000E+00  0.1000E+01
      0.348  0.0000E+00  0.1000E+01
      0.468  0.0000E+00  0.1000E+01
      0.588  0.1475E-12  0.1000E+01
      0.708  0.1193E-07  0.1000E+01
      0.828  0.5887E-04  0.1000E+01
      0.948  0.1888E-01  0.1002E+01
      1.068  0.4590E+00  0.1057E+01
      1.188  0.1331E+01  0.1217E+01
      1.308  0.1223E+01  0.1363E+01
      1.427  0.2971E+00  0.1399E+01
      1.547  0.1075E-01  0.1400E+01
      1.667  0.2451E+00  0.1430E+01
      1.787  0.1697E+01  0.1633E+01
      1.907  0.1411E+01  0.1802E+01
      2.027  0.1241E+01  0.1951E+01
      2.147  0.1641E+01  0.2148E+01
      2.267  0.4211E+00  0.2198E+01
      2.387  0.1300E-01  0.2200E+01
      2.506  0.3167E-04  0.2200E+01
      2.626  0.6628E-08  0.2200E+01
      2.746  0.1359E-04  0.2200E+01
      2.866  0.7432E-02  0.2201E+01
      2.986  0.2911E+00  0.2236E+01
      3.106  0.1005E+01  0.2356E+01
      3.226  0.3539E+00  0.2399E+01
      3.346  0.1120E-01  0.2400E+01
      3.466  0.3748E-04  0.2400E+01
      3.585  0.7606E-02  0.2401E+01
      3.705  0.3895E+00  0.2448E+01
      3.825  0.2174E+01  0.2708E+01
      3.945  0.2137E+01  0.2964E+01
      4.065  0.1476E+01  0.3141E+01
      4.185  0.1781E+01  0.3355E+01
      4.305  0.1160E+01  0.3494E+01
      4.425  0.3155E+01  0.3872E+01
      4.545  0.3855E+01  0.4334E+01
      4.664  0.1507E+01  0.4515E+01
      4.784  0.6618E+00  0.4594E+01
      4.904  0.4752E-01  0.4600E+01
      5.024  0.2688E-03  0.4600E+01
      5.144  0.1008E-06  0.4600E+01
      5.264  0.2333E-11  0.4600E+01
      5.384  0.1784E-09  0.4600E+01
      5.504  0.2695E-05  0.4600E+01
      5.624  0.2563E-02  0.4600E+01
      5.743  0.1693E+00  0.4621E+01
      5.863  0.9404E+00  0.4733E+01
      5.983  0.5281E+00  0.4797E+01
      6.103  0.2786E-01  0.4800E+01
      6.223  0.1848E-01  0.4802E+01
      6.343  0.4790E+00  0.4860E+01
      6.463  0.1847E+01  0.5081E+01
      6.583  0.3076E+01  0.5450E+01
      6.703  0.2602E+01  0.5762E+01
      6.822  0.1675E+01  0.5963E+01
      6.942  0.1677E+01  0.6164E+01
      7.062  0.2979E+00  0.6199E+01
      7.182  0.5565E-02  0.6200E+01
      7.302  0.5926E-04  0.6200E+01
      7.422  0.1728E-01  0.6202E+01
      7.542  0.4310E+00  0.6254E+01
      7.662  0.9858E+00  0.6372E+01
      7.782  0.2294E+00  0.6399E+01
      7.901  0.4606E-02  0.6400E+01
      8.021  0.6527E-05  0.6400E+01
      8.141  0.5865E-09  0.6400E+01
      8.261  0.3149E-14  0.6400E+01
      8.381  0.0000E+00  0.6400E+01
      8.501  0.0000E+00  0.6400E+01
      8.621  0.0000E+00  0.6400E+01
      8.741  0.0000E+00  0.6400E+01
      8.861  0.0000E+00  0.6400E+01
      8.980  0.0000E+00  0.6400E+01
      9.100  0.0000E+00  0.6400E+01
      9.220  0.0000E+00  0.6400E+01
