       N       E                     dE             d eps       ncg     rms          rms(c)
DAV:   1     0.351702764243E+02    0.35170E+02   -0.19380E+03    64   0.111E+02
DAV:   2    -0.156938393032E+02   -0.50864E+02   -0.50864E+02    96   0.357E+01
DAV:   3    -0.163132896710E+02   -0.61945E+00   -0.61945E+00    64   0.601E+00
DAV:   4    -0.163147175218E+02   -0.14279E-02   -0.14279E-02    64   0.304E-01
DAV:   5    -0.163147222504E+02   -0.47286E-05   -0.47286E-05    64   0.185E-02    0.805E+00
DAV:   6    -0.143728492048E+02    0.19419E+01   -0.94096E+00    64   0.542E+00    0.325E+00
DAV:   7    -0.142616507912E+02    0.11120E+00   -0.63688E-02    96   0.550E-01    0.199E+00
DAV:   8    -0.141836677881E+02    0.77983E-01   -0.73289E-02    64   0.650E-01    0.218E-01
DAV:   9    -0.141896489522E+02   -0.59812E-02   -0.42389E-03    96   0.100E-01    0.123E-01
DAV:  10    -0.141967847773E+02   -0.71358E-02   -0.29897E-03    64   0.118E-01    0.577E-02
DAV:  11    -0.142041419870E+02   -0.73572E-02   -0.32054E-03    64   0.737E-02    0.611E-02
DAV:  12    -0.142051980787E+02   -0.10561E-02   -0.93288E-04    96   0.459E-02    0.151E-02
DAV:  13    -0.142062175640E+02   -0.10195E-02   -0.14170E-04    64   0.169E-02    0.916E-03
DAV:  14    -0.142062570365E+02   -0.39473E-04   -0.12734E-05    96   0.641E-03
   1 F= -.14206257E+02 E0= -.14206257E+02  d E =-.142063E+02
       N       E                     dE             d eps       ncg     rms          rms(c)
DAV:   1    -0.142045748013E+02    0.16428E-02   -0.17413E+00    64   0.287E+00    0.904E-01
DAV:   2    -0.141896540182E+02    0.14921E-01   -0.99431E-02    96   0.523E-01    0.316E-01
DAV:   3    -0.141891699471E+02    0.48407E-03   -0.83303E-04    64   0.803E-02    0.176E-01
DAV:   4    -0.141893004878E+02   -0.13054E-03   -0.78184E-04   128   0.763E-02    0.195E-02
DAV:   5    -0.141893396066E+02   -0.39119E-04   -0.50323E-05    64   0.178E-02
   2 F= -.14189340E+02 E0= -.14189340E+02  d E =0.169174E-01
       N       E                     dE             d eps       ncg     rms          rms(c)
DAV:   1    -0.142274366288E+02   -0.38136E-01   -0.62976E-01    64   0.173E+00    0.527E-01
DAV:   2    -0.142224527955E+02    0.49838E-02   -0.33118E-02    96   0.318E-01    0.190E-01
DAV:   3    -0.142223258773E+02    0.12692E-03   -0.28082E-04    96   0.457E-02    0.105E-01
DAV:   4    -0.142223806394E+02   -0.54762E-04   -0.24942E-04    96   0.431E-02
   3 F= -.14222381E+02 E0= -.14222381E+02  d E =-.161236E-01
       N       E                     dE             d eps       ncg     rms          rms(c)
DAV:   1    -0.142225010040E+02   -0.17513E-03   -0.19392E-03    64   0.105E-01    0.132E-02
DAV:   2    -0.142225037768E+02   -0.27728E-05   -0.18414E-05    64   0.103E-02
   4 F= -.14222504E+02 E0= -.14222504E+02  d E =-.123137E-03
       N       E                     dE             d eps       ncg     rms          rms(c)
DAV:   1    -0.142225747417E+02   -0.73738E-04   -0.46894E-03    64   0.164E-01    0.213E-02
DAV:   2    -0.142225754140E+02   -0.67226E-06   -0.29131E-05    64   0.137E-02
   5 F= -.14222575E+02 E0= -.14222575E+02  d E =-.194775E-03
