adit: O H (3 atoms)
 1.0000000000000000
     7.9376999999999995    0.0000000000000000    0.0000000000000000
     0.0000000000000000    7.9376999999999995    0.0000000000000000
     0.0000000000000000    0.0000000000000000    7.9376999999999995
 O   H  
   1   2
Selective dynamics
Direct
  0.0000000000000000  0.0000000000000000  0.0000000000000000   F   F   F
  0.0733333333333333 -0.0953333333333333  0.0000000000000000   T   T   T
  0.0733333333333333  0.0953333333333333  0.0000000000000000   T   T   T
