<?xml version="1.0" encoding="ISO-8859-1"?>
<modeling>
 <generator>
  <i name="program" type="string">vasp </i>
  <i name="version" type="string">6.4.2  </i>
  <i name="subversion" type="string">20Jul23 (build Jun 19 2025 17:19:13) complex                          parallel </i>
  <i name="platform" type="string">LinuxGNU </i>
  <i name="date" type="string">2026 09 10 </i>
  <i name="time" type="string">17:27:16 </i>
 </generator>
 <incar>
  <i type="string" name="SYSTEM">adit O H</i>
  <i type="string" name="PREC">Normal</i>
  <i type="string" name="ALGO">Normal</i>
  <i type="int" name="ISPIN">     1</i>
  <i type="int" name="NELM">    60</i>
  <i type="int" name="IBRION">     2</i>
  <i name="EDIFF">      0.00010000</i>
  <i name="EDIFFG">     -0.02000000</i>
  <i type="int" name="NSW">    10</i>
  <i type="int" name="ISIF">     2</i>
  <i name="ENCUT">    400.00000000</i>
  <i type="string" name="LREAL">Auto</i>
  <i type="int" name="ISMEAR">     0</i>
  <i name="SIGMA">      0.10000000</i>
 </incar>
 <primitive_cell>
  <structure name="primitive_cell" >
   <crystal>
    <varray name="basis" >
     <v>       7.93770000       0.00000000       0.00000000 </v>
     <v>       0.00000000       7.93770000       0.00000000 </v>
     <v>       0.00000000       0.00000000       7.93770000 </v>
    </varray>
    <i name="volume">    500.13130916 </i>
    <varray name="rec_basis" >
     <v>       0.12598108       0.00000000       0.00000000 </v>
     <v>       0.00000000       0.12598108       0.00000000 </v>
     <v>       0.00000000       0.00000000       0.12598108 </v>
    </varray>
   </crystal>
   <varray name="positions" >
    <v>       0.00000000       0.00000000       0.00000000 </v>
    <v>       0.07333333       0.90466667       0.00000000 </v>
    <v>       0.07333333       0.09533333       0.00000000 </v>
   </varray>
  </structure>
  <varray name="primitive_index" >
   <v type="int" >        1 </v>
   <v type="int" >        2 </v>
   <v type="int" >        3 </v>
  </varray>
 </primitive_cell>
 <kpoints>
  <generation param="Gamma">
   <v type="int" name="divisions">       1        1        1 </v>
   <v name="usershift">      0.00000000       0.00000000       0.00000000 </v>
   <v name="genvec1">      1.00000000       0.00000000       0.00000000 </v>
   <v name="genvec2">      0.00000000       1.00000000       0.00000000 </v>
   <v name="genvec3">      0.00000000       0.00000000       1.00000000 </v>
   <v name="shift">      0.00000000       0.00000000       0.00000000 </v>
  </generation>
  <varray name="kpointlist" >
   <v>       0.00000000       0.00000000       0.00000000 </v>
  </varray>
  <varray name="weights" >
   <v>       1.00000000 </v>
  </varray>
 </kpoints>
 <parameters>
  <separator name="general" >
   <i type="string" name="SYSTEM">adit O H</i>
   <i type="logical" name="LCOMPAT"> F  </i>
  </separator>
  <separator name="electronic" >
   <i type="string" name="PREC">normal</i>
   <i name="ENMAX">    400.00000000</i>
   <i name="ENAUG">    605.39200000</i>
   <i name="EDIFF">      0.00010000</i>
   <i type="int" name="IALGO">    38</i>
   <i type="int" name="IWAVPR">    11</i>
   <i type="int" name="NBANDS">    32</i>
   <i type="int" name="NBANDSLOW">    -1</i>
   <i type="int" name="NBANDSHIGH">    -1</i>
   <i name="NELECT">      8.00000000</i>
   <i type="int" name="TURBO">     0</i>
   <i type="int" name="IRESTART">     0</i>
   <i type="int" name="NREBOOT">     0</i>
   <i type="int" name="NMIN">     0</i>
   <i name="EREF">      0.00000000</i>
   <separator name="electronic smearing" >
    <i type="int" name="ISMEAR">     0</i>
    <i name="SIGMA">      0.10000000</i>
    <i name="KSPACING">      0.50000000</i>
    <i type="logical" name="KGAMMA"> T  </i>
    <i type="logical" name="KBLOWUP"> T  </i>
   </separator>
   <separator name="electronic projectors" >
    <i type="logical" name="LREAL"> T  </i>
    <v name="ROPT">     -0.00050000     -0.00050000</v>
    <i type="int" name="LMAXPAW">  -100</i>
    <i type="int" name="LMAXMIX">     2</i>
    <i type="logical" name="NLSPLINE"> F  </i>
   </separator>
   <separator name="electronic startup" >
    <i type="int" name="ISTART">     0</i>
    <i type="int" name="ICHARG">     2</i>
    <i type="int" name="INIWAV">     1</i>
   </separator>
   <separator name="electronic spin" >
    <i type="int" name="ISPIN">     1</i>
    <i type="logical" name="LNONCOLLINEAR"> F  </i>
    <v name="MAGMOM">      1.00000000      1.00000000      1.00000000</v>
    <i name="NUPDOWN">     -1.00000000</i>
    <i type="logical" name="LSORBIT"> F  </i>
    <v name="SAXIS">      0.00000000      0.00000000      1.00000000</v>
    <i type="logical" name="LSPIRAL"> F  </i>
    <v name="QSPIRAL">      0.00000000      0.00000000      0.00000000</v>
    <i type="logical" name="LZEROZ"> F  </i>
   </separator>
   <separator name="electronic exchange-correlation" >
    <i type="logical" name="LASPH"> F  </i>
    <i type="logical" name="LMETAGGA"> F  </i>
   </separator>
   <separator name="electronic convergence" >
    <i type="int" name="NELM">    60</i>
    <i type="int" name="NELMDL">    -5</i>
    <i type="int" name="NELMIN">     2</i>
    <i name="ENINI">    400.00000000</i>
    <separator name="electronic convergence detail" >
     <i type="logical" name="LDIAG"> T  </i>
     <i type="logical" name="LSUBROT"> F  </i>
     <i name="WEIMIN">      0.00100000</i>
     <i name="EBREAK">      0.00000078</i>
     <i name="DEPER">      0.30000000</i>
     <i type="int" name="NRMM">     4</i>
     <i name="TIME">      0.40000000</i>
    </separator>
   </separator>
   <separator name="electronic mixer" >
    <i name="AMIX">      0.40000000</i>
    <i name="BMIX">      1.00000000</i>
    <i name="AMIN">      0.10000000</i>
    <i name="AMIX_MAG">      1.60000000</i>
    <i name="BMIX_MAG">      1.00000000</i>
    <separator name="electronic mixer details" >
     <i type="int" name="IMIX">     4</i>
     <i type="logical" name="MIXFIRST"> F  </i>
     <i type="int" name="MAXMIX">   -45</i>
     <i name="WC">    100.00000000</i>
     <i type="int" name="INIMIX">     1</i>
     <i type="int" name="MIXPRE">     1</i>
     <i type="int" name="MREMOVE">     5</i>
    </separator>
   </separator>
   <separator name="electronic dipolcorrection" >
    <i type="logical" name="LDIPOL"> F  </i>
    <i type="logical" name="LMONO"> F  </i>
    <i type="int" name="IDIPOL">     0</i>
    <i name="EPSILON">      1.00000000</i>
    <v name="DIPOL">   -100.00000000   -100.00000000   -100.00000000</v>
    <i name="EFIELD">      0.00000000</i>
   </separator>
  </separator>
  <separator name="grids" >
   <i type="int" name="NGX">    40</i>
   <i type="int" name="NGY">    40</i>
   <i type="int" name="NGZ">    40</i>
   <i type="int" name="NGXF">    80</i>
   <i type="int" name="NGYF">    80</i>
   <i type="int" name="NGZF">    80</i>
   <i type="logical" name="ADDGRID"> F  </i>
  </separator>
  <separator name="ionic" >
   <i type="int" name="NSW">    10</i>
   <i type="int" name="IBRION">     2</i>
   <i type="int" name="MDALGO">     0</i>
   <i type="int" name="ISIF">     2</i>
   <i name="PSTRESS">      0.00000000</i>
   <i name="EDIFFG">     -0.02000000</i>
   <i type="int" name="NFREE">     1</i>
   <i name="POTIM">      0.50000000</i>
   <i name="SMASS">     -3.00000000</i>
   <i name="SCALEE">      1.00000000</i>
  </separator>
  <separator name="ionic md" >
   <i name="TEBEG">      0.00010000</i>
   <i name="TEEND">      0.00010000</i>
   <i type="int" name="NBLOCK">     1</i>
   <i type="int" name="KBLOCK">    10</i>
   <i type="int" name="NPACO">   256</i>
   <i name="APACO">     10.00000000</i>
  </separator>
  <separator name="symmetry" >
   <i type="int" name="ISYM">     2</i>
   <i name="SYMPREC">      0.00001000</i>
  </separator>
  <separator name="dos" >
   <i type="int" name="LORBIT">     0</i>
   <v name="RWIGS">     -1.00000000     -1.00000000</v>
   <i type="int" name="NEDOS">   301</i>
   <i name="EMIN">     10.00000000</i>
   <i name="EMAX">    -10.00000000</i>
   <i name="EFERMI">      0.00000000</i>
  </separator>
  <separator name="writing" >
   <i type="int" name="NWRITE">     2</i>
   <i type="logical" name="LWAVE"> T  </i>
   <i type="logical" name="LDOWNSAMPLE"> F  </i>
   <i type="logical" name="LCHARG"> T  </i>
   <i type="logical" name="LPARD"> F  </i>
   <i type="logical" name="LVTOT"> F  </i>
   <i type="logical" name="LVHAR"> F  </i>
   <i type="logical" name="LELF"> F  </i>
   <i type="logical" name="LOPTICS"> F  </i>
   <v name="STM">      0.00000000      0.00000000      0.00000000      0.00000000      0.00000000      0.00000000      0.00000000</v>
  </separator>
  <separator name="performance" >
   <i type="int" name="NPAR">    32</i>
   <i type="int" name="NSIM">     4</i>
   <i type="int" name="NBLK">    -1</i>
   <i type="logical" name="LPLANE"> T  </i>
   <i type="logical" name="LSCALAPACK"> T  </i>
   <i type="logical" name="LSCAAWARE"> F  </i>
   <i type="logical" name="LSCALU"> F  </i>
   <i type="logical" name="LASYNC"> F  </i>
   <i type="logical" name="LORBITALREAL"> F  </i>
  </separator>
  <separator name="miscellaneous" >
   <i type="int" name="IDIOT">     3</i>
   <i type="int" name="PHON_NSTRUCT">    -1</i>
   <i type="logical" name="LMUSIC"> F  </i>
   <v name="POMASS">     16.00000000      1.00000000</v>
   <v name="DARWINR">      0.00000000      0.00000000</v>
   <v name="DARWINV">      1.00000000      1.00000000</v>
   <i type="logical" name="LCORR"> T  </i>
  </separator>
  <i type="logical" name="GGA_COMPAT"> T  </i>
  <i type="logical" name="LBERRY"> F  </i>
  <i type="int" name="ICORELEVEL">     0</i>
  <i type="logical" name="LDAU"> F  </i>
  <i type="int" name="I_CONSTRAINED_M">     0</i>
  <separator name="electronic exchange-correlation" >
   <i type="string" name="GGA">--</i>
   <i type="int" name="VOSKOWN">     0</i>
   <i type="logical" name="LHFCALC"> F  </i>
   <i type="string" name="PRECFOCK"></i>
   <i type="logical" name="LSYMGRAD"> F  </i>
   <i type="logical" name="LHFONE"> F  </i>
   <i type="logical" name="LRHFCALC"> F  </i>
   <i type="logical" name="LTHOMAS"> F  </i>
   <i type="logical" name="LMODELHF"> F  </i>
   <i type="logical" name="LFOCKACE"> F  </i>
   <i name="ENCUT4O">     -1.00000000</i>
   <i type="int" name="EXXOEP">     0</i>
   <i type="int" name="FOURORBIT">     0</i>
   <i name="AEXX">      0.00000000</i>
   <i name="HFALPHA">      0.00000000</i>
   <i name="MCALPHA">      0.00000000</i>
   <i name="ALDAX">      1.00000000</i>
   <i name="AGGAX">      1.00000000</i>
   <i name="ALDAC">      1.00000000</i>
   <i name="AGGAC">      1.00000000</i>
   <i type="int" name="NKREDX">     1</i>
   <i type="int" name="NKREDY">     1</i>
   <i type="int" name="NKREDZ">     1</i>
   <i type="logical" name="SHIFTRED"> F  </i>
   <i type="logical" name="ODDONLY"> F  </i>
   <i type="logical" name="EVENONLY"> F  </i>
   <i type="int" name="LMAXFOCK">     0</i>
   <i type="int" name="NMAXFOCKAE">     0</i>
   <i type="logical" name="LFOCKAEDFT"> F  </i>
   <i name="HFSCREEN">      0.00000000</i>
   <i name="HFSCREENC">      0.00000000</i>
   <i type="int" name="NBANDSGWLOW">     0</i>
  </separator>
  <separator name="vdW DFT" >
   <i type="logical" name="LUSE_VDW"> F  </i>
   <i type="int" name="IVDW_NL">     1</i>
   <i type="logical" name="LSPIN_VDW"> F  </i>
   <i name="Zab_VDW">     -0.84910000</i>
   <i name="PARAM1">      0.12340000</i>
   <i name="PARAM2">      1.00000000</i>
   <i name="PARAM3">      0.00000000</i>
  </separator>
  <separator name="model GW" >
   <i type="int" name="MODEL_GW">     0</i>
   <i name="MODEL_EPS0">    100.02626183</i>
   <i name="MODEL_ALPHA">      1.00000000</i>
  </separator>
  <separator name="linear response parameters" >
   <i type="logical" name="LEPSILON"> F  </i>
   <i type="logical" name="LRPA"> F  </i>
   <i type="logical" name="LNABLA"> F  </i>
   <i type="logical" name="LVEL"> F  </i>
   <i name="CSHIFT">      0.10000000</i>
   <i name="OMEGAMAX">     -1.00000000</i>
   <i name="DEG_THRESHOLD">      0.00200000</i>
   <i name="RTIME">     -0.10000000</i>
   <i name="WPLASMAI">      0.00000000</i>
   <v name="DFIELD">      0.00000000      0.00000000      0.00000000</v>
   <v name="WPLASMA">      0.00000000      0.00000000      0.00000000      0.00000000      0.00000000      0.00000000      0.00000000      0.00000000      0.00000000</v>
  </separator>
  <separator name="orbital magnetization" >
   <i type="logical" name="NUCIND"> F  </i>
   <v name="MAGPOS">      0.00000000      0.00000000      0.00000000</v>
   <i type="logical" name="LNICSALL"> T  </i>
   <i type="logical" name="ORBITALMAG"> F  </i>
   <i type="logical" name="LMAGBLOCH"> F  </i>
   <i type="logical" name="LCHIMAG"> F  </i>
   <i type="logical" name="LGAUGE"> T  </i>
   <i type="int" name="MAGATOM">     0</i>
   <v name="MAGDIPOL">      0.00000000      0.00000000      0.00000000</v>
   <v name="AVECCONST">      0.00000000      0.00000000      0.00000000</v>
  </separator>
  <separator name="response functions" >
   <i type="logical" name="LALL_IN_ONE"> F  </i>
   <i type="int" name="IALL_IN_ONE">    -1</i>
   <i type="int" name="NBANDS_WAVE">    -1</i>
   <i type="logical" name="LFINITE_TEMPERATURE"> F  </i>
   <i type="logical" name="LADDER"> F  </i>
   <i type="logical" name="LRPAFORCE"> F  </i>
   <i type="logical" name="LFXC"> F  </i>
   <i type="logical" name="LHARTREE"> T  </i>
   <i type="int" name="IBSE">     0</i>
   <v type="int" name="KPOINT">    -1     0     0     0</v>
   <i type="logical" name="LTCTC"> F  </i>
   <i type="logical" name="LTCTE"> F  </i>
   <i type="logical" name="LTETE"> F  </i>
   <i type="logical" name="LTRIPLET"> F  </i>
   <i type="logical" name="LFXCEPS"> F  </i>
   <i type="logical" name="LFXHEG"> F  </i>
   <i type="int" name="NATURALO">     2</i>
   <i type="logical" name="LHOLEGF"> F  </i>
   <i type="logical" name="L2ORDER"> F  </i>
   <i type="logical" name="LDMP1"> F  </i>
   <i type="logical" name="LMP2LT"> F  </i>
   <i type="logical" name="LSMP2LT"> F  </i>
   <i type="logical" name="LGWLF"> F  </i>
   <i name="ENCUTGW">     -1.60000002</i>
   <i name="ENCUTGWSOFT">     -1.60000002</i>
   <i name="ENCUTLF">     -1.00000000</i>
   <i type="logical" name="LESF_SPLINES"> F  </i>
   <i type="int" name="LMAXMP2">    -1</i>
   <i name="SCISSOR">      0.00000000</i>
   <i type="int" name="NOMEGA">     0</i>
   <i type="int" name="NOMEGAR">     0</i>
   <i type="int" name="NBANDSGW">    -1</i>
   <i type="int" name="NBANDSO">    -1</i>
   <i type="int" name="NBANDSV">    -1</i>
   <i type="int" name="NELMGW">     1</i>
   <i type="int" name="NELMHF">     1</i>
   <i type="int" name="DIM">     3</i>
   <i type="int" name="IESPILON">     4</i>
   <i type="int" name="ANTIRES">     0</i>
   <i name="OMEGAMAX">    -30.00000000</i>
   <i name="OMEGAMIN">    -30.00000000</i>
   <i name="OMEGATL">   -200.00000000</i>
   <i type="int" name="OMEGAGRID">     0</i>
   <i name="CSHIFT">     -0.10000000</i>
   <i type="logical" name="LSELFENERGY"> F  </i>
   <i type="logical" name="LSPECTRAL"> F  </i>
   <i type="logical" name="LSPECTRALGW"> F  </i>
   <i type="logical" name="LSINGLES"> F  </i>
   <i type="logical" name="LFERMIGW"> F  </i>
   <i type="logical" name="ODDONLYGW"> F  </i>
   <i type="logical" name="EVENONLYGW"> F  </i>
   <i type="int" name="NKREDLFX">     1</i>
   <i type="int" name="NKREDLFY">     1</i>
   <i type="int" name="NKREDLFZ">     1</i>
   <i type="int" name="MAXMEM">  2800</i>
   <i type="int" name="TELESCOPE">     0</i>
   <i type="int" name="NTAUPAR">    -1</i>
   <i type="int" name="NOMEGAPAR">    -1</i>
   <i name="DAMP_NEWTON">      0.80000001</i>
   <i name="LAMBDA">      1.00000000</i>
  </separator>
  <separator name="External order field" >
   <i name="OFIELD_KAPPA">      0.00000000</i>
   <v name="OFIELD_K">      0.00000000      0.00000000      0.00000000</v>
   <i name="OFIELD_Q6_NEAR">      0.00000000</i>
   <i name="OFIELD_Q6_FAR">      0.00000000</i>
   <i name="OFIELD_A">      0.00000000</i>
  </separator>
  <separator name="optional k-points parameters" >
   <i type="int" name="KPOINTS_OPT_MODE">     1</i>
   <i type="logical" name="LKPOINTS_OPT"> F  </i>
  </separator>
 </parameters>
 <atominfo>
  <atoms>       3 </atoms>
  <types>       2 </types>
  <array name="atoms" >
   <dimension dim="1">ion</dimension>
   <field type="string">element</field>
   <field type="int">atomtype</field>
   <set>
    <rc><c>O </c><c>   1</c></rc>
    <rc><c>H </c><c>   2</c></rc>
    <rc><c>H </c><c>   2</c></rc>
   </set>
  </array>
  <array name="atomtypes" >
   <dimension dim="1">type</dimension>
   <field type="int">atomspertype</field>
   <field type="string">element</field>
   <field>mass</field>
   <field>valence</field>
   <field type="string">pseudopotential</field>
   <set>
    <rc><c>   1</c><c>O </c><c>     16.00000000</c><c>      6.00000000</c><c>  PAW_PBE O 08Apr2002                   </c></rc>
    <rc><c>   2</c><c>H </c><c>      1.00000000</c><c>      1.00000000</c><c>  PAW_PBE H 15Jun2001                   </c></rc>
   </set>
  </array>
 </atominfo>
 <structure name="initialpos" >
  <crystal>
   <varray name="basis" >
    <v>       7.93770000       0.00000000       0.00000000 </v>
    <v>       0.00000000       7.93770000       0.00000000 </v>
    <v>       0.00000000       0.00000000       7.93770000 </v>
   </varray>
   <i name="volume">    500.13130916 </i>
   <varray name="rec_basis" >
    <v>       0.12598108       0.00000000       0.00000000 </v>
    <v>       0.00000000       0.12598108       0.00000000 </v>
    <v>       0.00000000       0.00000000       0.12598108 </v>
   </varray>
  </crystal>
  <varray name="positions" >
   <v>       0.00000000       0.00000000       0.00000000 </v>
   <v>       0.07333333       0.90466667       0.00000000 </v>
   <v>       0.07333333       0.09533333       0.00000000 </v>
  </varray>
  <varray name="selective"  type="logical" >
   <v type="logical" >  F  F  F </v>
   <v type="logical" >  T  T  T </v>
   <v type="logical" >  T  T  T </v>
  </varray>
  <nose>
   <v>      -3.00000000       0.00000000       0.00010000       0.00010000 </v>
  </nose>
 </structure>
 <calculation>
  <scstep>
   <time name="dav">    0.03    0.07</time>
   <time name="total">    0.05    0.09</time>
   <energy>
    <i name="alphaZ">      0.44838482 </i>
    <i name="ewald">     26.60306768 </i>
    <i name="hartreedc">   -386.12288666 </i>
    <i name="XCdc">     32.24941097 </i>
    <i name="pawpsdc">    350.81753176 </i>
    <i name="pawaedc">   -352.63395800 </i>
    <i name="eentropy">     -0.00000000 </i>
    <i name="bandstr">    -93.41173552 </i>
    <i name="atom">    457.22046137 </i>
    <i name="e_fr_energy">     35.17027642 </i>
    <i name="e_wo_entrp">     35.17027642 </i>
    <i name="e_0_energy">     35.17027642 </i>
   </energy>
  </scstep>
  <scstep>
   <time name="dav">    0.05    0.17</time>
   <time name="total">    0.05    0.17</time>
   <energy>
    <i name="e_fr_energy">    -15.69383930 </i>
    <i name="e_wo_entrp">    -15.69383930 </i>
    <i name="e_0_energy">    -15.69383930 </i>
   </energy>
  </scstep>
  <scstep>
   <time name="dav">    0.04    0.19</time>
   <time name="total">    0.04    0.19</time>
   <energy>
    <i name="e_fr_energy">    -16.31328967 </i>
    <i name="e_wo_entrp">    -16.31328967 </i>
    <i name="e_0_energy">    -16.31328967 </i>
   </energy>
  </scstep>
  <scstep>
   <time name="dav">    0.13    0.13</time>
   <time name="total">    0.13    0.13</time>
   <energy>
    <i name="e_fr_energy">    -16.31471752 </i>
    <i name="e_wo_entrp">    -16.31471752 </i>
    <i name="e_0_energy">    -16.31471752 </i>
   </energy>
  </scstep>
  <scstep>
   <time name="dav">    0.11    0.11</time>
   <time name="total">    0.12    0.12</time>
   <energy>
    <i name="e_fr_energy">    -16.31472225 </i>
    <i name="e_wo_entrp">    -16.31472225 </i>
    <i name="e_0_energy">    -16.31472225 </i>
   </energy>
  </scstep>
  <scstep>
   <time name="dav">    0.02    0.02</time>
   <time name="total">    0.11    0.15</time>
   <energy>
    <i name="e_fr_energy">    -14.37284920 </i>
    <i name="e_wo_entrp">    -14.37284920 </i>
    <i name="e_0_energy">    -14.37284920 </i>
   </energy>
  </scstep>
  <scstep>
   <time name="dav">    0.04    0.04</time>
   <time name="total">    0.11    0.21</time>
   <energy>
    <i name="e_fr_energy">    -14.26165079 </i>
    <i name="e_wo_entrp">    -14.26165079 </i>
    <i name="e_0_energy">    -14.26165079 </i>
   </energy>
  </scstep>
  <scstep>
   <time name="dav">    0.02    0.02</time>
   <time name="total">    0.20    0.20</time>
   <energy>
    <i name="e_fr_energy">    -14.18366779 </i>
    <i name="e_wo_entrp">    -14.18366779 </i>
    <i name="e_0_energy">    -14.18366779 </i>
   </energy>
  </scstep>
  <scstep>
   <time name="dav">    0.04    0.04</time>
   <time name="total">    0.10    0.19</time>
   <energy>
    <i name="e_fr_energy">    -14.18964895 </i>
    <i name="e_wo_entrp">    -14.18964895 </i>
    <i name="e_0_energy">    -14.18964895 </i>
   </energy>
  </scstep>
  <scstep>
   <time name="dav">    0.02    0.02</time>
   <time name="total">    0.15    0.21</time>
   <energy>
    <i name="e_fr_energy">    -14.19678478 </i>
    <i name="e_wo_entrp">    -14.19678478 </i>
    <i name="e_0_energy">    -14.19678478 </i>
   </energy>
  </scstep>
  <scstep>
   <time name="dav">    0.02    0.02</time>
   <time name="total">    0.12    0.12</time>
   <energy>
    <i name="e_fr_energy">    -14.20414199 </i>
    <i name="e_wo_entrp">    -14.20414199 </i>
    <i name="e_0_energy">    -14.20414199 </i>
   </energy>
  </scstep>
  <scstep>
   <time name="dav">    0.04    0.04</time>
   <time name="total">    0.06    0.07</time>
   <energy>
    <i name="e_fr_energy">    -14.20519808 </i>
    <i name="e_wo_entrp">    -14.20519808 </i>
    <i name="e_0_energy">    -14.20519808 </i>
   </energy>
  </scstep>
  <scstep>
   <time name="dav">    0.02    0.02</time>
   <time name="total">    0.08    0.16</time>
   <energy>
    <i name="e_fr_energy">    -14.20621756 </i>
    <i name="e_wo_entrp">    -14.20621756 </i>
    <i name="e_0_energy">    -14.20621756 </i>
   </energy>
  </scstep>
  <scstep>
   <time name="dav">    0.04    0.04</time>
   <time name="total">    0.09    0.19</time>
   <energy>
    <i name="alphaZ">      0.44838482 </i>
    <i name="ewald">     26.60306768 </i>
    <i name="hartreedc">   -421.44756392 </i>
    <i name="XCdc">     34.15374395 </i>
    <i name="pawpsdc">    572.10332721 </i>
    <i name="pawaedc">   -574.18578114 </i>
    <i name="eentropy">     -0.00000000 </i>
    <i name="bandstr">   -109.10189701 </i>
    <i name="atom">    457.22046137 </i>
    <i name="e_fr_energy">    -14.20625704 </i>
    <i name="e_wo_entrp">    -14.20625704 </i>
    <i name="e_0_energy">    -14.20625704 </i>
   </energy>
  </scstep>
  <structure>
   <crystal>
    <varray name="basis" >
     <v>       7.93770000       0.00000000       0.00000000 </v>
     <v>       0.00000000       7.93770000       0.00000000 </v>
     <v>       0.00000000       0.00000000       7.93770000 </v>
    </varray>
    <i name="volume">    500.13130916 </i>
    <varray name="rec_basis" >
     <v>       0.12598108       0.00000000       0.00000000 </v>
     <v>       0.00000000       0.12598108       0.00000000 </v>
     <v>       0.00000000       0.00000000       0.12598108 </v>
    </varray>
   </crystal>
   <varray name="positions" >
    <v>       0.00000000       0.00000000       0.00000000 </v>
    <v>       0.07333333       0.90466667       0.00000000 </v>
    <v>       0.07333333       0.09533333       0.00000000 </v>
   </varray>
  </structure>
  <varray name="forces" >
   <v>      -1.08723699       0.00000000       0.00000000 </v>
   <v>       0.54361849      -0.74771764       0.00000000 </v>
   <v>       0.54361849       0.74771764      -0.00000000 </v>
  </varray>
  <varray name="stress" >
   <v>      -0.64872524       0.00000000       0.00000000 </v>
   <v>       0.00000000       1.26380806       0.00000000 </v>
   <v>       0.00000000       0.00000000      -2.88060856 </v>
  </varray>
  <energy>
   <i name="e_fr_energy">    -14.20625704 </i>
   <i name="e_wo_entrp">    -14.20625704 </i>
   <i name="e_0_energy">    -14.20625704 </i>
  </energy>
  <time name="totalsc">    2.08    3.07</time>
 </calculation>
 <calculation>
  <scstep>
   <time name="dav">    0.02    0.02</time>
   <time name="total">    0.04    0.05</time>
   <energy>
    <i name="alphaZ">      0.44838482 </i>
    <i name="ewald">     18.17293391 </i>
    <i name="hartreedc">   -417.01365090 </i>
    <i name="XCdc">     33.93749767 </i>
    <i name="pawpsdc">    571.92138200 </i>
    <i name="pawaedc">   -574.00358306 </i>
    <i name="eentropy">     -0.00000000 </i>
    <i name="bandstr">   -104.88800061 </i>
    <i name="atom">    457.22046137 </i>
    <i name="e_fr_energy">    -14.20457480 </i>
    <i name="e_wo_entrp">    -14.20457480 </i>
    <i name="e_0_energy">    -14.20457480 </i>
   </energy>
  </scstep>
  <scstep>
   <time name="dav">    0.04    0.04</time>
   <time name="total">    0.07    0.22</time>
   <energy>
    <i name="e_fr_energy">    -14.18965402 </i>
    <i name="e_wo_entrp">    -14.18965402 </i>
    <i name="e_0_energy">    -14.18965402 </i>
   </energy>
  </scstep>
  <scstep>
   <time name="dav">    0.02    0.02</time>
   <time name="total">    0.09    0.21</time>
   <energy>
    <i name="e_fr_energy">    -14.18916995 </i>
    <i name="e_wo_entrp">    -14.18916995 </i>
    <i name="e_0_energy">    -14.18916995 </i>
   </energy>
  </scstep>
  <scstep>
   <time name="dav">    0.06    0.06</time>
   <time name="total">    0.12    0.23</time>
   <energy>
    <i name="e_fr_energy">    -14.18930049 </i>
    <i name="e_wo_entrp">    -14.18930049 </i>
    <i name="e_0_energy">    -14.18930049 </i>
   </energy>
  </scstep>
  <scstep>
   <time name="dav">    0.02    0.02</time>
   <time name="total">    0.08    0.10</time>
   <energy>
    <i name="alphaZ">      0.44838482 </i>
    <i name="ewald">     18.17293391 </i>
    <i name="hartreedc">   -414.82110949 </i>
    <i name="XCdc">     33.81596849 </i>
    <i name="pawpsdc">    543.98323631 </i>
    <i name="pawaedc">   -546.01036662 </i>
    <i name="eentropy">     -0.00000000 </i>
    <i name="bandstr">   -106.99884839 </i>
    <i name="atom">    457.22046137 </i>
    <i name="e_fr_energy">    -14.18933961 </i>
    <i name="e_wo_entrp">    -14.18933961 </i>
    <i name="e_0_energy">    -14.18933961 </i>
   </energy>
  </scstep>
  <structure>
   <crystal>
    <varray name="basis" >
     <v>       7.93770000       0.00000000       0.00000000 </v>
     <v>       0.00000000       7.93770000       0.00000000 </v>
     <v>       0.00000000       0.00000000       7.93770000 </v>
    </varray>
    <i name="volume">    500.13130916 </i>
    <varray name="rec_basis" >
     <v>       0.12598108       0.00000000       0.00000000 </v>
     <v>       0.00000000       0.12598108       0.00000000 </v>
     <v>       0.00000000       0.00000000       0.12598108 </v>
    </varray>
   </crystal>
   <varray name="positions" >
    <v>       0.00000000       0.00000000       0.00000000 </v>
    <v>       0.07663726       0.90012229       0.00000000 </v>
    <v>       0.07663726       0.09987771      -0.00000000 </v>
   </varray>
  </structure>
  <varray name="forces" >
   <v>       1.23944702       0.00000000      -0.00000000 </v>
   <v>      -0.61972351       1.02191207       0.00000000 </v>
   <v>      -0.61972351      -1.02191207       0.00000000 </v>
  </varray>
  <varray name="stress" >
   <v>      -4.96787274       0.00000000       0.00000000 </v>
   <v>       0.00000000      -7.40214954       0.00000000 </v>
   <v>       0.00000000       0.00000000      -2.80059363 </v>
  </varray>
  <energy>
   <i name="e_fr_energy">    -14.18933961 </i>
   <i name="e_wo_entrp">    -14.18933961 </i>
   <i name="e_0_energy">    -14.18933961 </i>
  </energy>
  <time name="totalsc">    0.47    0.98</time>
 </calculation>
 <calculation>
  <scstep>
   <time name="dav">    0.02    0.02</time>
   <time name="total">    0.04    0.04</time>
   <energy>
    <i name="alphaZ">      0.44838482 </i>
    <i name="ewald">     23.14836457 </i>
    <i name="hartreedc">   -417.47512150 </i>
    <i name="XCdc">     33.94552163 </i>
    <i name="pawpsdc">    543.73161759 </i>
    <i name="pawaedc">   -545.75904929 </i>
    <i name="eentropy">     -0.00000000 </i>
    <i name="bandstr">   -109.48761582 </i>
    <i name="atom">    457.22046137 </i>
    <i name="e_fr_energy">    -14.22743663 </i>
    <i name="e_wo_entrp">    -14.22743663 </i>
    <i name="e_0_energy">    -14.22743663 </i>
   </energy>
  </scstep>
  <scstep>
   <time name="dav">    0.04    0.04</time>
   <time name="total">    0.16    0.23</time>
   <energy>
    <i name="e_fr_energy">    -14.22245280 </i>
    <i name="e_wo_entrp">    -14.22245280 </i>
    <i name="e_0_energy">    -14.22245280 </i>
   </energy>
  </scstep>
  <scstep>
   <time name="dav">    0.04    0.04</time>
   <time name="total">    0.10    0.23</time>
   <energy>
    <i name="e_fr_energy">    -14.22232588 </i>
    <i name="e_wo_entrp">    -14.22232588 </i>
    <i name="e_0_energy">    -14.22232588 </i>
   </energy>
  </scstep>
  <scstep>
   <time name="dav">    0.04    0.04</time>
   <time name="total">    0.13    0.16</time>
   <energy>
    <i name="alphaZ">      0.44838482 </i>
    <i name="ewald">     23.14836457 </i>
    <i name="hartreedc">   -418.76754711 </i>
    <i name="XCdc">     34.01640284 </i>
    <i name="pawpsdc">    559.73764193 </i>
    <i name="pawaedc">   -561.79661009 </i>
    <i name="eentropy">     -0.00000000 </i>
    <i name="bandstr">   -108.22947897 </i>
    <i name="atom">    457.22046137 </i>
    <i name="e_fr_energy">    -14.22238064 </i>
    <i name="e_wo_entrp">    -14.22238064 </i>
    <i name="e_0_energy">    -14.22238064 </i>
   </energy>
  </scstep>
  <structure>
   <crystal>
    <varray name="basis" >
     <v>       7.93770000       0.00000000       0.00000000 </v>
     <v>       0.00000000       7.93770000       0.00000000 </v>
     <v>       0.00000000       0.00000000       7.93770000 </v>
    </varray>
    <i name="volume">    500.13130916 </i>
    <varray name="rec_basis" >
     <v>       0.12598108       0.00000000       0.00000000 </v>
     <v>       0.00000000       0.12598108       0.00000000 </v>
     <v>       0.00000000       0.00000000       0.12598108 </v>
    </varray>
   </crystal>
   <varray name="positions" >
    <v>       0.00000000       0.00000000       0.00000000 </v>
    <v>       0.07465045       0.90285504       0.00000000 </v>
    <v>       0.07465045       0.09714496      -0.00000000 </v>
   </varray>
  </structure>
  <varray name="forces" >
   <v>      -0.06613744       0.00000000       0.00000000 </v>
   <v>       0.03306872       0.02383386      -0.00000000 </v>
   <v>       0.03306872      -0.02383386      -0.00000000 </v>
  </varray>
  <varray name="stress" >
   <v>      -2.50276425       0.00000000       0.00000000 </v>
   <v>       0.00000000      -2.42791585       0.00000000 </v>
   <v>       0.00000000       0.00000000      -2.83383517 </v>
  </varray>
  <energy>
   <i name="e_fr_energy">    -14.22238064 </i>
   <i name="e_wo_entrp">    -14.22238064 </i>
   <i name="e_0_energy">    -14.22238064 </i>
  </energy>
  <time name="totalsc">    0.62    0.90</time>
 </calculation>
 <calculation>
  <scstep>
   <time name="dav">    0.02    0.02</time>
   <time name="total">    0.04    0.04</time>
   <energy>
    <i name="alphaZ">      0.44838482 </i>
    <i name="ewald">     23.13708931 </i>
    <i name="hartreedc">   -418.76193298 </i>
    <i name="XCdc">     34.01629359 </i>
    <i name="pawpsdc">    560.10653409 </i>
    <i name="pawaedc">   -562.16605769 </i>
    <i name="eentropy">     -0.00000000 </i>
    <i name="bandstr">   -108.22327351 </i>
    <i name="atom">    457.22046137 </i>
    <i name="e_fr_energy">    -14.22250100 </i>
    <i name="e_wo_entrp">    -14.22250100 </i>
    <i name="e_0_energy">    -14.22250100 </i>
   </energy>
  </scstep>
  <scstep>
   <time name="dav">    0.02    0.02</time>
   <time name="total">    0.19    0.20</time>
   <energy>
    <i name="alphaZ">      0.44838482 </i>
    <i name="ewald">     23.13708931 </i>
    <i name="hartreedc">   -418.74256702 </i>
    <i name="XCdc">     34.01522683 </i>
    <i name="pawpsdc">    560.05898435 </i>
    <i name="pawaedc">   -562.11776064 </i>
    <i name="eentropy">     -0.00000000 </i>
    <i name="bandstr">   -108.24232279 </i>
    <i name="atom">    457.22046137 </i>
    <i name="e_fr_energy">    -14.22250378 </i>
    <i name="e_wo_entrp">    -14.22250378 </i>
    <i name="e_0_energy">    -14.22250378 </i>
   </energy>
  </scstep>
  <structure>
   <crystal>
    <varray name="basis" >
     <v>       7.93770000       0.00000000       0.00000000 </v>
     <v>       0.00000000       7.93770000       0.00000000 </v>
     <v>       0.00000000       0.00000000       7.93770000 </v>
    </varray>
    <i name="volume">    500.13130916 </i>
    <varray name="rec_basis" >
     <v>       0.12598108       0.00000000       0.00000000 </v>
     <v>       0.00000000       0.12598108       0.00000000 </v>
     <v>       0.00000000       0.00000000       0.12598108 </v>
    </varray>
   </crystal>
   <varray name="positions" >
    <v>       0.00000000       0.00000000       0.00000000 </v>
    <v>       0.07483238       0.90297543       0.00000000 </v>
    <v>       0.07483238       0.09702457      -0.00000000 </v>
   </varray>
  </structure>
  <varray name="forces" >
   <v>      -0.03958519       0.00000000      -0.00000000 </v>
   <v>       0.01979259       0.01545871       0.00000000 </v>
   <v>       0.01979259      -0.01545871       0.00000000 </v>
  </varray>
  <varray name="stress" >
   <v>      -2.55069224       0.00000000       0.00000000 </v>
   <v>       0.00000000      -2.39137721       0.00000000 </v>
   <v>       0.00000000       0.00000000      -2.85083964 </v>
  </varray>
  <energy>
   <i name="e_fr_energy">    -14.22250378 </i>
   <i name="e_wo_entrp">    -14.22250378 </i>
   <i name="e_0_energy">    -14.22250378 </i>
  </energy>
  <time name="totalsc">    0.40    0.55</time>
 </calculation>
 <calculation>
  <scstep>
   <time name="dav">    0.02    0.02</time>
   <time name="total">    0.04    0.04</time>
   <energy>
    <i name="alphaZ">      0.44838482 </i>
    <i name="ewald">     23.11802427 </i>
    <i name="hartreedc">   -418.73429552 </i>
    <i name="XCdc">     34.01501043 </i>
    <i name="pawpsdc">    560.05458340 </i>
    <i name="pawaedc">   -562.11308651 </i>
    <i name="eentropy">     -0.00000000 </i>
    <i name="bandstr">   -108.23165700 </i>
    <i name="atom">    457.22046137 </i>
    <i name="e_fr_energy">    -14.22257474 </i>
    <i name="e_wo_entrp">    -14.22257474 </i>
    <i name="e_0_energy">    -14.22257474 </i>
   </energy>
  </scstep>
  <scstep>
   <time name="dav">    0.02    0.02</time>
   <time name="total">    0.18    0.18</time>
   <energy>
    <i name="alphaZ">      0.44838482 </i>
    <i name="ewald">     23.11802427 </i>
    <i name="hartreedc">   -418.71488049 </i>
    <i name="XCdc">     34.01392342 </i>
    <i name="pawpsdc">    559.95143442 </i>
    <i name="pawaedc">   -562.00891328 </i>
    <i name="eentropy">     -0.00000000 </i>
    <i name="bandstr">   -108.25100995 </i>
    <i name="atom">    457.22046137 </i>
    <i name="e_fr_energy">    -14.22257541 </i>
    <i name="e_wo_entrp">    -14.22257541 </i>
    <i name="e_0_energy">    -14.22257541 </i>
   </energy>
  </scstep>
  <structure>
   <crystal>
    <varray name="basis" >
     <v>       7.93770000       0.00000000       0.00000000 </v>
     <v>       0.00000000       7.93770000       0.00000000 </v>
     <v>       0.00000000       0.00000000       7.93770000 </v>
    </varray>
    <i name="volume">    500.13130916 </i>
    <varray name="rec_basis" >
     <v>       0.12598108       0.00000000       0.00000000 </v>
     <v>       0.00000000       0.12598108       0.00000000 </v>
     <v>       0.00000000       0.00000000       0.12598108 </v>
    </varray>
   </crystal>
   <varray name="positions" >
    <v>       0.00000000       0.00000000       0.00000000 </v>
    <v>       0.07512263       0.90316749      -0.00000000 </v>
    <v>       0.07512263       0.09683251      -0.00000000 </v>
   </varray>
  </structure>
  <varray name="forces" >
   <v>      -0.00115435       0.00000000      -0.00000000 </v>
   <v>       0.00057717       0.00111708       0.00000000 </v>
   <v>       0.00057717      -0.00111708      -0.00000000 </v>
  </varray>
  <varray name="stress" >
   <v>      -2.62472950       0.00000000       0.00000000 </v>
   <v>       0.00000000      -2.32529534       0.00000000 </v>
   <v>       0.00000000       0.00000000      -2.85487623 </v>
  </varray>
  <energy>
   <i name="e_fr_energy">    -14.22257541 </i>
   <i name="e_wo_entrp">    -14.22257541 </i>
   <i name="e_0_energy">    -14.22257541 </i>
  </energy>
  <time name="totalsc">    0.42    0.52</time>
  <eigenvalues>
   <array>
    <dimension dim="1">band</dimension>
    <dimension dim="2">kpoint</dimension>
    <dimension dim="3">spin</dimension>
    <field>eigene</field>
    <field>occ</field>
    <set>
     <set comment="spin 1">
      <set comment="kpoint 1">
       <r>  -25.1114    1.0000 </r>
       <r>  -12.9038    1.0000 </r>
       <r>   -9.0905    1.0000 </r>
       <r>   -7.0198    1.0000 </r>
       <r>   -1.0700    0.0000 </r>
       <r>    1.1091    0.0000 </r>
       <r>    1.2429    0.0000 </r>
       <r>    1.7559    0.0000 </r>
       <r>    1.7882    0.0000 </r>
       <r>    2.0109    0.0000 </r>
       <r>    2.0953    0.0000 </r>
       <r>    3.0511    0.0000 </r>
       <r>    3.7738    0.0000 </r>
       <r>    3.8120    0.0000 </r>
       <r>    3.8849    0.0000 </r>
       <r>    4.0604    0.0000 </r>
       <r>    4.1283    0.0000 </r>
       <r>    4.3248    0.0000 </r>
       <r>    4.4360    0.0000 </r>
       <r>    4.4438    0.0000 </r>
       <r>    4.4448    0.0000 </r>
       <r>    4.4793    0.0000 </r>
       <r>    4.6499    0.0000 </r>
       <r>    5.8329    0.0000 </r>
       <r>    6.3851    0.0000 </r>
       <r>    6.4900    0.0000 </r>
       <r>    6.5313    0.0000 </r>
       <r>    6.6215    0.0000 </r>
       <r>    6.6221    0.0000 </r>
       <r>    6.8113    0.0000 </r>
       <r>    6.8691    0.0000 </r>
       <r>    7.5854    0.0000 </r>
      </set>
     </set>
    </set>
   </array>
  </eigenvalues>
  <separator name="orbital magnetization" >
   <v name="MAGDIPOLOUT">      0.00000000      0.00000000      0.00000000</v>
  </separator>
  <dos>
   <i name="efermi">     -6.47765042 </i>
   <total>
    <array>
     <dimension dim="1">gridpoints</dimension>
     <dimension dim="2">spin</dimension>
     <field>energy</field>
     <field>total</field>
     <field>integrated</field>
     <set>
      <set comment="spin 1">
       <r>   -26.7463     0.0000     0.0000 </r>
       <r>   -26.6264     0.0000     0.0000 </r>
       <r>   -26.5065     0.0000     0.0000 </r>
       <r>   -26.3866     0.0000     0.0000 </r>
       <r>   -26.2667     0.0000     0.0000 </r>
       <r>   -26.1468     0.0000     0.0000 </r>
       <r>   -26.0270     0.0000     0.0000 </r>
       <r>   -25.9071     0.0000     0.0000 </r>
       <r>   -25.7872     0.0000     0.0000 </r>
       <r>   -25.6673     0.0000     0.0000 </r>
       <r>   -25.5474     0.0000     0.0000 </r>
       <r>   -25.4275     0.0001     0.0000 </r>
       <r>   -25.3076     0.0461     0.0055 </r>
       <r>   -25.1877     2.2945     0.2806 </r>
       <r>   -25.0679     9.8579     1.4625 </r>
       <r>   -24.9480     4.3104     1.9792 </r>
       <r>   -24.8281     0.1728     1.9999 </r>
       <r>   -24.7082     0.0005     2.0000 </r>
       <r>   -24.5883     0.0000     2.0000 </r>
       <r>   -24.4684     0.0000     2.0000 </r>
       <r>   -24.3485     0.0000     2.0000 </r>
       <r>   -24.2286     0.0000     2.0000 </r>
       <r>   -24.1087     0.0000     2.0000 </r>
       <r>   -23.9889     0.0000     2.0000 </r>
       <r>   -23.8690     0.0000     2.0000 </r>
       <r>   -23.7491     0.0000     2.0000 </r>
       <r>   -23.6292     0.0000     2.0000 </r>
       <r>   -23.5093     0.0000     2.0000 </r>
       <r>   -23.3894     0.0000     2.0000 </r>
       <r>   -23.2695     0.0000     2.0000 </r>
       <r>   -23.1496     0.0000     2.0000 </r>
       <r>   -23.0297     0.0000     2.0000 </r>
       <r>   -22.9099     0.0000     2.0000 </r>
       <r>   -22.7900     0.0000     2.0000 </r>
       <r>   -22.6701     0.0000     2.0000 </r>
       <r>   -22.5502     0.0000     2.0000 </r>
       <r>   -22.4303     0.0000     2.0000 </r>
       <r>   -22.3104     0.0000     2.0000 </r>
       <r>   -22.1905     0.0000     2.0000 </r>
       <r>   -22.0706     0.0000     2.0000 </r>
       <r>   -21.9508     0.0000     2.0000 </r>
       <r>   -21.8309     0.0000     2.0000 </r>
       <r>   -21.7110     0.0000     2.0000 </r>
       <r>   -21.5911     0.0000     2.0000 </r>
       <r>   -21.4712     0.0000     2.0000 </r>
       <r>   -21.3513     0.0000     2.0000 </r>
       <r>   -21.2314     0.0000     2.0000 </r>
       <r>   -21.1115     0.0000     2.0000 </r>
       <r>   -20.9916     0.0000     2.0000 </r>
       <r>   -20.8718     0.0000     2.0000 </r>
       <r>   -20.7519     0.0000     2.0000 </r>
       <r>   -20.6320     0.0000     2.0000 </r>
       <r>   -20.5121     0.0000     2.0000 </r>
       <r>   -20.3922     0.0000     2.0000 </r>
       <r>   -20.2723     0.0000     2.0000 </r>
       <r>   -20.1524     0.0000     2.0000 </r>
       <r>   -20.0325     0.0000     2.0000 </r>
       <r>   -19.9126     0.0000     2.0000 </r>
       <r>   -19.7928     0.0000     2.0000 </r>
       <r>   -19.6729     0.0000     2.0000 </r>
       <r>   -19.5530     0.0000     2.0000 </r>
       <r>   -19.4331     0.0000     2.0000 </r>
       <r>   -19.3132     0.0000     2.0000 </r>
       <r>   -19.1933     0.0000     2.0000 </r>
       <r>   -19.0734     0.0000     2.0000 </r>
       <r>   -18.9535     0.0000     2.0000 </r>
       <r>   -18.8337     0.0000     2.0000 </r>
       <r>   -18.7138     0.0000     2.0000 </r>
       <r>   -18.5939     0.0000     2.0000 </r>
       <r>   -18.4740     0.0000     2.0000 </r>
       <r>   -18.3541     0.0000     2.0000 </r>
       <r>   -18.2342     0.0000     2.0000 </r>
       <r>   -18.1143     0.0000     2.0000 </r>
       <r>   -17.9944     0.0000     2.0000 </r>
       <r>   -17.8745     0.0000     2.0000 </r>
       <r>   -17.7547     0.0000     2.0000 </r>
       <r>   -17.6348     0.0000     2.0000 </r>
       <r>   -17.5149     0.0000     2.0000 </r>
       <r>   -17.3950     0.0000     2.0000 </r>
       <r>   -17.2751     0.0000     2.0000 </r>
       <r>   -17.1552     0.0000     2.0000 </r>
       <r>   -17.0353     0.0000     2.0000 </r>
       <r>   -16.9154     0.0000     2.0000 </r>
       <r>   -16.7956     0.0000     2.0000 </r>
       <r>   -16.6757     0.0000     2.0000 </r>
       <r>   -16.5558     0.0000     2.0000 </r>
       <r>   -16.4359     0.0000     2.0000 </r>
       <r>   -16.3160     0.0000     2.0000 </r>
       <r>   -16.1961     0.0000     2.0000 </r>
       <r>   -16.0762     0.0000     2.0000 </r>
       <r>   -15.9563     0.0000     2.0000 </r>
       <r>   -15.8364     0.0000     2.0000 </r>
       <r>   -15.7166     0.0000     2.0000 </r>
       <r>   -15.5967     0.0000     2.0000 </r>
       <r>   -15.4768     0.0000     2.0000 </r>
       <r>   -15.3569     0.0000     2.0000 </r>
       <r>   -15.2370     0.0000     2.0000 </r>
       <r>   -15.1171     0.0000     2.0000 </r>
       <r>   -14.9972     0.0000     2.0000 </r>
       <r>   -14.8773     0.0000     2.0000 </r>
       <r>   -14.7574     0.0000     2.0000 </r>
       <r>   -14.6376     0.0000     2.0000 </r>
       <r>   -14.5177     0.0000     2.0000 </r>
       <r>   -14.3978     0.0000     2.0000 </r>
       <r>   -14.2779     0.0000     2.0000 </r>
       <r>   -14.1580     0.0000     2.0000 </r>
       <r>   -14.0381     0.0000     2.0000 </r>
       <r>   -13.9182     0.0000     2.0000 </r>
       <r>   -13.7983     0.0000     2.0000 </r>
       <r>   -13.6785     0.0000     2.0000 </r>
       <r>   -13.5586     0.0000     2.0000 </r>
       <r>   -13.4387     0.0000     2.0000 </r>
       <r>   -13.3188     0.0000     2.0000 </r>
       <r>   -13.1989     0.0003     2.0000 </r>
       <r>   -13.0790     0.1101     2.0132 </r>
       <r>   -12.9591     3.5106     2.4341 </r>
       <r>   -12.8392    10.0494     3.6389 </r>
       <r>   -12.7193     2.9361     3.9909 </r>
       <r>   -12.5995     0.0757     4.0000 </r>
       <r>   -12.4796     0.0001     4.0000 </r>
       <r>   -12.3597     0.0000     4.0000 </r>
       <r>   -12.2398     0.0000     4.0000 </r>
       <r>   -12.1199     0.0000     4.0000 </r>
       <r>   -12.0000     0.0000     4.0000 </r>
       <r>   -11.8801     0.0000     4.0000 </r>
       <r>   -11.7602     0.0000     4.0000 </r>
       <r>   -11.6403     0.0000     4.0000 </r>
       <r>   -11.5205     0.0000     4.0000 </r>
       <r>   -11.4006     0.0000     4.0000 </r>
       <r>   -11.2807     0.0000     4.0000 </r>
       <r>   -11.1608     0.0000     4.0000 </r>
       <r>   -11.0409     0.0000     4.0000 </r>
       <r>   -10.9210     0.0000     4.0000 </r>
       <r>   -10.8011     0.0000     4.0000 </r>
       <r>   -10.6812     0.0000     4.0000 </r>
       <r>   -10.5614     0.0000     4.0000 </r>
       <r>   -10.4415     0.0000     4.0000 </r>
       <r>   -10.3216     0.0000     4.0000 </r>
       <r>   -10.2017     0.0000     4.0000 </r>
       <r>   -10.0818     0.0000     4.0000 </r>
       <r>    -9.9619     0.0000     4.0000 </r>
       <r>    -9.8420     0.0000     4.0000 </r>
       <r>    -9.7221     0.0000     4.0000 </r>
       <r>    -9.6022     0.0000     4.0000 </r>
       <r>    -9.4824     0.0000     4.0000 </r>
       <r>    -9.3625     0.0010     4.0001 </r>
       <r>    -9.2426     0.2613     4.0314 </r>
       <r>    -9.1227     5.1468     4.6485 </r>
       <r>    -9.0028     9.4787     5.7849 </r>
       <r>    -8.8829     1.7665     5.9967 </r>
       <r>    -8.7630     0.0278     6.0000 </r>
       <r>    -8.6431     0.0000     6.0000 </r>
       <r>    -8.5232     0.0000     6.0000 </r>
       <r>    -8.4034     0.0000     6.0000 </r>
       <r>    -8.2835     0.0000     6.0000 </r>
       <r>    -8.1636     0.0000     6.0000 </r>
       <r>    -8.0437     0.0000     6.0000 </r>
       <r>    -7.9238     0.0000     6.0000 </r>
       <r>    -7.8039     0.0000     6.0000 </r>
       <r>    -7.6840     0.0000     6.0000 </r>
       <r>    -7.5641     0.0000     6.0000 </r>
       <r>    -7.4443     0.0000     6.0000 </r>
       <r>    -7.3244     0.0001     6.0000 </r>
       <r>    -7.2045     0.0750     6.0090 </r>
       <r>    -7.0846     2.9233     6.3595 </r>
       <r>    -6.9647    10.0478     7.5641 </r>
       <r>    -6.8448     3.5247     7.9867 </r>
       <r>    -6.7249     0.1110     8.0000 </r>
       <r>    -6.6050     0.0003     8.0000 </r>
       <r>    -6.4851     0.0000     8.0000 </r>
       <r>    -6.3653     0.0000     8.0000 </r>
       <r>    -6.2454     0.0000     8.0000 </r>
       <r>    -6.1255     0.0000     8.0000 </r>
       <r>    -6.0056     0.0000     8.0000 </r>
       <r>    -5.8857     0.0000     8.0000 </r>
       <r>    -5.7658     0.0000     8.0000 </r>
       <r>    -5.6459     0.0000     8.0000 </r>
       <r>    -5.5260     0.0000     8.0000 </r>
       <r>    -5.4061     0.0000     8.0000 </r>
       <r>    -5.2863     0.0000     8.0000 </r>
       <r>    -5.1664     0.0000     8.0000 </r>
       <r>    -5.0465     0.0000     8.0000 </r>
       <r>    -4.9266     0.0000     8.0000 </r>
       <r>    -4.8067     0.0000     8.0000 </r>
       <r>    -4.6868     0.0000     8.0000 </r>
       <r>    -4.5669     0.0000     8.0000 </r>
       <r>    -4.4470     0.0000     8.0000 </r>
       <r>    -4.3272     0.0000     8.0000 </r>
       <r>    -4.2073     0.0000     8.0000 </r>
       <r>    -4.0874     0.0000     8.0000 </r>
       <r>    -3.9675     0.0000     8.0000 </r>
       <r>    -3.8476     0.0000     8.0000 </r>
       <r>    -3.7277     0.0000     8.0000 </r>
       <r>    -3.6078     0.0000     8.0000 </r>
       <r>    -3.4879     0.0000     8.0000 </r>
       <r>    -3.3680     0.0000     8.0000 </r>
       <r>    -3.2482     0.0000     8.0000 </r>
       <r>    -3.1283     0.0000     8.0000 </r>
       <r>    -3.0084     0.0000     8.0000 </r>
       <r>    -2.8885     0.0000     8.0000 </r>
       <r>    -2.7686     0.0000     8.0000 </r>
       <r>    -2.6487     0.0000     8.0000 </r>
       <r>    -2.5288     0.0000     8.0000 </r>
       <r>    -2.4089     0.0000     8.0000 </r>
       <r>    -2.2890     0.0000     8.0000 </r>
       <r>    -2.1692     0.0000     8.0000 </r>
       <r>    -2.0493     0.0000     8.0000 </r>
       <r>    -1.9294     0.0000     8.0000 </r>
       <r>    -1.8095     0.0000     8.0000 </r>
       <r>    -1.6896     0.0000     8.0000 </r>
       <r>    -1.5697     0.0000     8.0000 </r>
       <r>    -1.4498     0.0000     8.0000 </r>
       <r>    -1.3299     0.0020     8.0002 </r>
       <r>    -1.2101     0.3949     8.0476 </r>
       <r>    -1.0902     6.0690     8.7752 </r>
       <r>    -0.9703     8.8936     9.8414 </r>
       <r>    -0.8504     1.3069     9.9981 </r>
       <r>    -0.7305     0.0158    10.0000 </r>
       <r>    -0.6106     0.0000    10.0000 </r>
       <r>    -0.4907     0.0000    10.0000 </r>
       <r>    -0.3708     0.0000    10.0000 </r>
       <r>    -0.2509     0.0000    10.0000 </r>
       <r>    -0.1311     0.0000    10.0000 </r>
       <r>    -0.0112     0.0000    10.0000 </r>
       <r>     0.1087     0.0000    10.0000 </r>
       <r>     0.2286     0.0000    10.0000 </r>
       <r>     0.3485     0.0000    10.0000 </r>
       <r>     0.4684     0.0000    10.0000 </r>
       <r>     0.5883     0.0000    10.0000 </r>
       <r>     0.7082     0.0000    10.0000 </r>
       <r>     0.8281     0.0006    10.0001 </r>
       <r>     0.9479     0.1888    10.0227 </r>
       <r>     1.0678     4.5896    10.5730 </r>
       <r>     1.1877    13.3127    12.1690 </r>
       <r>     1.3076    12.2263    13.6348 </r>
       <r>     1.4275     2.9709    13.9910 </r>
       <r>     1.5474     0.1075    14.0038 </r>
       <r>     1.6673     2.4506    14.2976 </r>
       <r>     1.7872    16.9716    16.3323 </r>
       <r>     1.9070    14.1136    18.0244 </r>
       <r>     2.0269    12.4097    19.5122 </r>
       <r>     2.1468    16.4095    21.4795 </r>
       <r>     2.2667     4.2113    21.9844 </r>
       <r>     2.3866     0.1300    22.0000 </r>
       <r>     2.5065     0.0003    22.0000 </r>
       <r>     2.6264     0.0000    22.0000 </r>
       <r>     2.7463     0.0001    22.0000 </r>
       <r>     2.8662     0.0743    22.0089 </r>
       <r>     2.9860     2.9107    22.3579 </r>
       <r>     3.1059    10.0461    23.5623 </r>
       <r>     3.2258     3.5387    23.9865 </r>
       <r>     3.3457     0.1120    24.0000 </r>
       <r>     3.4656     0.0004    24.0000 </r>
       <r>     3.5855     0.0761    24.0091 </r>
       <r>     3.7054     3.8946    24.4761 </r>
       <r>     3.8253    21.7373    27.0821 </r>
       <r>     3.9452    21.3669    29.6437 </r>
       <r>     4.0650    14.7558    31.4128 </r>
       <r>     4.1849    17.8074    33.5477 </r>
       <r>     4.3048    11.6030    34.9388 </r>
       <r>     4.4247    31.5459    38.7208 </r>
       <r>     4.5446    38.5462    43.3420 </r>
       <r>     4.6645    15.0743    45.1492 </r>
       <r>     4.7844     6.6184    45.9427 </r>
       <r>     4.9043     0.4752    45.9997 </r>
       <r>     5.0241     0.0027    46.0000 </r>
       <r>     5.1440     0.0000    46.0000 </r>
       <r>     5.2639     0.0000    46.0000 </r>
       <r>     5.3838     0.0000    46.0000 </r>
       <r>     5.5037     0.0000    46.0000 </r>
       <r>     5.6236     0.0256    46.0031 </r>
       <r>     5.7435     1.6928    46.2060 </r>
       <r>     5.8634     9.4040    47.3335 </r>
       <r>     5.9833     5.2805    47.9665 </r>
       <r>     6.1031     0.2786    47.9999 </r>
       <r>     6.2230     0.1848    48.0221 </r>
       <r>     6.3429     4.7895    48.5963 </r>
       <r>     6.4628    18.4682    50.8104 </r>
       <r>     6.5827    30.7623    54.4985 </r>
       <r>     6.7026    26.0173    57.6176 </r>
       <r>     6.8225    16.7535    59.6262 </r>
       <r>     6.9424    16.7657    61.6362 </r>
       <r>     7.0623     2.9787    61.9933 </r>
       <r>     7.1821     0.0556    62.0000 </r>
       <r>     7.3020     0.0006    62.0001 </r>
       <r>     7.4219     0.1728    62.0208 </r>
       <r>     7.5418     4.3104    62.5375 </r>
       <r>     7.6617     9.8579    63.7194 </r>
       <r>     7.7816     2.2945    63.9945 </r>
       <r>     7.9015     0.0461    64.0000 </r>
       <r>     8.0214     0.0001    64.0000 </r>
       <r>     8.1412     0.0000    64.0000 </r>
       <r>     8.2611     0.0000    64.0000 </r>
       <r>     8.3810     0.0000    64.0000 </r>
       <r>     8.5009     0.0000    64.0000 </r>
       <r>     8.6208     0.0000    64.0000 </r>
       <r>     8.7407     0.0000    64.0000 </r>
       <r>     8.8606     0.0000    64.0000 </r>
       <r>     8.9805     0.0000    64.0000 </r>
       <r>     9.1004     0.0000    64.0000 </r>
       <r>     9.2202     0.0000    64.0000 </r>
      </set>
     </set>
    </array>
   </total>
  </dos>
 </calculation>
 <structure name="finalpos" >
  <crystal>
   <varray name="basis" >
    <v>       7.93770000       0.00000000       0.00000000 </v>
    <v>       0.00000000       7.93770000       0.00000000 </v>
    <v>       0.00000000       0.00000000       7.93770000 </v>
   </varray>
   <i name="volume">    500.13130916 </i>
   <varray name="rec_basis" >
    <v>       0.12598108       0.00000000       0.00000000 </v>
    <v>       0.00000000       0.12598108       0.00000000 </v>
    <v>       0.00000000       0.00000000       0.12598108 </v>
   </varray>
  </crystal>
  <varray name="positions" >
   <v>       0.00000000       0.00000000       0.00000000 </v>
   <v>       0.07512263       0.90316749      -0.00000000 </v>
   <v>       0.07512263       0.09683251      -0.00000000 </v>
  </varray>
  <varray name="selective"  type="logical" >
   <v type="logical" >  F  F  F </v>
   <v type="logical" >  T  T  T </v>
   <v type="logical" >  T  T  T </v>
  </varray>
  <nose>
   <v>      -3.00000000       0.00000000       0.00010000       0.00010000 </v>
  </nose>
 </structure>
</modeling>
