adit O H                               
           1
     7.937700    0.000000    0.000000
     0.000000    7.937700    0.000000
     0.000000    0.000000    7.937700
   O    H 
     1     2
Direct configuration=     1
   0.00000000  0.00000000  0.00000000
   0.07333333  0.90466667  0.00000000
   0.07333333  0.09533333  0.00000000
Direct configuration=     2
   0.00000000  0.00000000  0.00000000
   0.07663726  0.90012229  0.00000000
   0.07663726  0.09987771 -0.00000000
Direct configuration=     3
   0.00000000  0.00000000  0.00000000
   0.07465045  0.90285504  0.00000000
   0.07465045  0.09714496 -0.00000000
Direct configuration=     4
   0.00000000  0.00000000  0.00000000
   0.07483238  0.90297543  0.00000000
   0.07483238  0.09702457 -0.00000000
Direct configuration=     5
   0.00000000  0.00000000  0.00000000
   0.07512263  0.90316749 -0.00000000
   0.07512263  0.09683251 -0.00000000
