
     Program PWSCF v.7.5 starts on 10Sep2026 at 18:23:27 

     This program is part of the open-source Quantum ESPRESSO suite
     for quantum simulation of materials; please cite
         "P. Giannozzi et al., J. Phys.:Condens. Matter 21 395502 (2009);
         "P. Giannozzi et al., J. Phys.:Condens. Matter 29 465901 (2017);
         "P. Giannozzi et al., J. Chem. Phys. 152 154105 (2020);
          URL http://www.quantum-espresso.org", 
     in publications or presentations arising from this work. More details at
     http://www.quantum-espresso.org/quote

     Parallel version (MPI & OpenMP), running on       2 processor cores
     Number of MPI processes:                 2
     Threads/MPI process:                     1

     MPI processes distributed on     1 nodes
     752 MiB available memory on the printing compute node when the environment starts

     Reading input from pw.in
Warning: card &IONS ignored
Warning: card &CELL ignored
Warning: card &FCP ignored
Warning: card &RISM ignored

     Current dimensions of program PWSCF are:
     Max number of different atomic species (ntypx) = 10
     Max number of k-points (npk) =  40000
     Max angular momentum in pseudopotentials (lmaxx) =  4

     Atomic positions and unit cell read from directory:
     ../tmp/adit.save/

     Message from routine setup:
     using ibrav=0 with symmetry is DISCOURAGED, use correct ibrav instead

     R & G space division:  proc/nbgrp/npool/nimage =       2
     Subspace diagonalization in iterative solution of the eigenvalue problem:
     a serial algorithm will be used


     Parallelization info
     --------------------
     sticks:   dense  smooth     PW     G-vecs:    dense   smooth      PW
     Min         180     180     60                 2286     2286     434
     Max         181     181     61                 2287     2287     435
     Sum         361     361    121                 4573     4573     869

     Using Slab Decomposition



     bravais-lattice index     =            0
     lattice parameter (alat)  =       7.2558  a.u.
     unit-cell volume          =     270.1072 (a.u.)^3
     number of atoms/cell      =            2
     number of atomic types    =            1
     number of electrons       =         8.00
     number of Kohn-Sham states=            8
     kinetic-energy cutoff     =      25.0000  Ry
     charge density cutoff     =     100.0000  Ry
     Exchange-correlation= PBE
                           (   1   4   3   4   0   0   0)

     celldm(1)=   7.255773  celldm(2)=   0.000000  celldm(3)=   0.000000
     celldm(4)=   0.000000  celldm(5)=   0.000000  celldm(6)=   0.000000

     crystal axes: (cart. coord. in units of alat)
               a(1) = (   0.000000   0.707107   0.707107 )  
               a(2) = (   0.707107   0.000000   0.707107 )  
               a(3) = (   0.707107   0.707107   0.000000 )  

     reciprocal axes: (cart. coord. in units 2 pi/alat)
               b(1) = ( -0.707107  0.707107  0.707107 )  
               b(2) = (  0.707107 -0.707107  0.707107 )  
               b(3) = (  0.707107  0.707107 -0.707107 )  


     PseudoPot. # 1 for Si read from file:
     ../pseudo/Si.pbe-n-rrkjus_psl.1.0.0.UPF
     MD5 check sum: fa25574f73a70a4139f2adfbefec430c
     Pseudo is Ultrasoft + core correction, Zval =  4.0
     Generated using &quot;atomic&quot; code by A. Dal Corso  v.6.3
     Using radial grid of 1141 points,  6 beta functions with: 
                l(1) =   0
                l(2) =   0
                l(3) =   1
                l(4) =   1
                l(5) =   2
                l(6) =   2
     Q(r) pseudized with 0 coefficients 


     atomic species   valence    mass     pseudopotential
     Si                4.00    28.08500     Si( 1.00)

     48 Sym. Ops., with inversion, found (24 have fractional translation)


                                    s                        frac. trans.

      isym =  1     identity                                     

 cryst.   s( 1) = (     1          0          0      )
                  (     0          1          0      )
                  (     0          0          1      )

 cart.    s( 1) = (  1.0000000  0.0000000  0.0000000 )
                  (  0.0000000  1.0000000  0.0000000 )
                  (  0.0000000  0.0000000  1.0000000 )


      isym =  2     180 deg rotation - cart. axis [0,0,1]        

 cryst.   s( 2) = (     0          1         -1      )
                  (     1          0         -1      )
                  (     0          0         -1      )

 cart.    s( 2) = ( -1.0000000  0.0000000  0.0000000 )
                  (  0.0000000 -1.0000000  0.0000000 )
                  (  0.0000000  0.0000000  1.0000000 )


      isym =  3     180 deg rotation - cart. axis [0,1,0]        

 cryst.   s( 3) = (     0         -1          1      )
                  (     0         -1          0      )
                  (     1         -1          0      )

 cart.    s( 3) = ( -1.0000000  0.0000000  0.0000000 )
                  (  0.0000000  1.0000000  0.0000000 )
                  (  0.0000000  0.0000000 -1.0000000 )


      isym =  4     180 deg rotation - cart. axis [1,0,0]        

 cryst.   s( 4) = (    -1          0          0      )
                  (    -1          0          1      )
                  (    -1          1          0      )

 cart.    s( 4) = (  1.0000000  0.0000000  0.0000000 )
                  (  0.0000000 -1.0000000  0.0000000 )
                  (  0.0000000  0.0000000 -1.0000000 )


      isym =  5     180 deg rotation - cart. axis [1,1,0]        

 cryst.   s( 5) = (    -1          0          1      )    f =( -0.2500000 )
                  (     0         -1          1      )       ( -0.2500000 )
                  (     0          0          1      )       ( -0.2500000 )

 cart.    s( 5) = (  0.0000000  1.0000000  0.0000000 )    f =( -0.3535534 )
                  (  1.0000000  0.0000000  0.0000000 )       ( -0.3535534 )
                  (  0.0000000  0.0000000 -1.0000000 )       ( -0.3535534 )


      isym =  6     180 deg rotation - cart. axis [1,-1,0]       

 cryst.   s( 6) = (     0         -1          0      )    f =( -0.2500000 )
                  (    -1          0          0      )       ( -0.2500000 )
                  (     0          0         -1      )       ( -0.2500000 )

 cart.    s( 6) = (  0.0000000 -1.0000000  0.0000000 )    f =( -0.3535534 )
                  ( -1.0000000  0.0000000  0.0000000 )       ( -0.3535534 )
                  (  0.0000000  0.0000000 -1.0000000 )       ( -0.3535534 )


      isym =  7      90 deg rotation - cart. axis [0,0,-1]       

 cryst.   s( 7) = (     0          1          0      )    f =( -0.2500000 )
                  (     0          1         -1      )       ( -0.2500000 )
                  (    -1          1          0      )       ( -0.2500000 )

 cart.    s( 7) = (  0.0000000  1.0000000  0.0000000 )    f =( -0.3535534 )
                  ( -1.0000000  0.0000000  0.0000000 )       ( -0.3535534 )
                  (  0.0000000  0.0000000  1.0000000 )       ( -0.3535534 )


      isym =  8      90 deg rotation - cart. axis [0,0,1]        

 cryst.   s( 8) = (     1          0         -1      )    f =( -0.2500000 )
                  (     1          0          0      )       ( -0.2500000 )
                  (     1         -1          0      )       ( -0.2500000 )

 cart.    s( 8) = (  0.0000000 -1.0000000  0.0000000 )    f =( -0.3535534 )
                  (  1.0000000  0.0000000  0.0000000 )       ( -0.3535534 )
                  (  0.0000000  0.0000000  1.0000000 )       ( -0.3535534 )


      isym =  9     180 deg rotation - cart. axis [1,0,1]        

 cryst.   s( 9) = (    -1          1          0      )    f =( -0.2500000 )
                  (     0          1          0      )       ( -0.2500000 )
                  (     0          1         -1      )       ( -0.2500000 )

 cart.    s( 9) = (  0.0000000  0.0000000  1.0000000 )    f =( -0.3535534 )
                  (  0.0000000 -1.0000000  0.0000000 )       ( -0.3535534 )
                  (  1.0000000  0.0000000  0.0000000 )       ( -0.3535534 )


      isym = 10     180 deg rotation - cart. axis [-1,0,1]       

 cryst.   s(10) = (     0          0         -1      )    f =( -0.2500000 )
                  (     0         -1          0      )       ( -0.2500000 )
                  (    -1          0          0      )       ( -0.2500000 )

 cart.    s(10) = (  0.0000000  0.0000000 -1.0000000 )    f =( -0.3535534 )
                  (  0.0000000 -1.0000000  0.0000000 )       ( -0.3535534 )
                  ( -1.0000000  0.0000000  0.0000000 )       ( -0.3535534 )


      isym = 11      90 deg rotation - cart. axis [0,1,0]        

 cryst.   s(11) = (     0          0          1      )    f =( -0.2500000 )
                  (    -1          0          1      )       ( -0.2500000 )
                  (     0         -1          1      )       ( -0.2500000 )

 cart.    s(11) = (  0.0000000  0.0000000  1.0000000 )    f =( -0.3535534 )
                  (  0.0000000  1.0000000  0.0000000 )       ( -0.3535534 )
                  ( -1.0000000  0.0000000  0.0000000 )       ( -0.3535534 )


      isym = 12      90 deg rotation - cart. axis [0,-1,0]       

 cryst.   s(12) = (     1         -1          0      )    f =( -0.2500000 )
                  (     1          0         -1      )       ( -0.2500000 )
                  (     1          0          0      )       ( -0.2500000 )

 cart.    s(12) = (  0.0000000  0.0000000 -1.0000000 )    f =( -0.3535534 )
                  (  0.0000000  1.0000000  0.0000000 )       ( -0.3535534 )
                  (  1.0000000  0.0000000  0.0000000 )       ( -0.3535534 )


      isym = 13     180 deg rotation - cart. axis [0,1,1]        

 cryst.   s(13) = (     1          0          0      )    f =( -0.2500000 )
                  (     1         -1          0      )       ( -0.2500000 )
                  (     1          0         -1      )       ( -0.2500000 )

 cart.    s(13) = ( -1.0000000  0.0000000  0.0000000 )    f =( -0.3535534 )
                  (  0.0000000  0.0000000  1.0000000 )       ( -0.3535534 )
                  (  0.0000000  1.0000000  0.0000000 )       ( -0.3535534 )


      isym = 14     180 deg rotation - cart. axis [0,1,-1]       

 cryst.   s(14) = (    -1          0          0      )    f =( -0.2500000 )
                  (     0          0         -1      )       ( -0.2500000 )
                  (     0         -1          0      )       ( -0.2500000 )

 cart.    s(14) = ( -1.0000000  0.0000000  0.0000000 )    f =( -0.3535534 )
                  (  0.0000000  0.0000000 -1.0000000 )       ( -0.3535534 )
                  (  0.0000000 -1.0000000  0.0000000 )       ( -0.3535534 )


      isym = 15      90 deg rotation - cart. axis [-1,0,0]       

 cryst.   s(15) = (     0         -1          1      )    f =( -0.2500000 )
                  (     0          0          1      )       ( -0.2500000 )
                  (    -1          0          1      )       ( -0.2500000 )

 cart.    s(15) = (  1.0000000  0.0000000  0.0000000 )    f =( -0.3535534 )
                  (  0.0000000  0.0000000  1.0000000 )       ( -0.3535534 )
                  (  0.0000000 -1.0000000  0.0000000 )       ( -0.3535534 )


      isym = 16      90 deg rotation - cart. axis [1,0,0]        

 cryst.   s(16) = (     0          1         -1      )    f =( -0.2500000 )
                  (    -1          1          0      )       ( -0.2500000 )
                  (     0          1          0      )       ( -0.2500000 )

 cart.    s(16) = (  1.0000000  0.0000000  0.0000000 )    f =( -0.3535534 )
                  (  0.0000000  0.0000000 -1.0000000 )       ( -0.3535534 )
                  (  0.0000000  1.0000000  0.0000000 )       ( -0.3535534 )


      isym = 17     120 deg rotation - cart. axis [-1,-1,-1]     

 cryst.   s(17) = (     0          0          1      )
                  (     1          0          0      )
                  (     0          1          0      )

 cart.    s(17) = (  0.0000000  1.0000000  0.0000000 )
                  (  0.0000000  0.0000000  1.0000000 )
                  (  1.0000000  0.0000000  0.0000000 )


      isym = 18     120 deg rotation - cart. axis [-1,1,1]       

 cryst.   s(18) = (     1         -1          0      )
                  (     0         -1          1      )
                  (     0         -1          0      )

 cart.    s(18) = (  0.0000000 -1.0000000  0.0000000 )
                  (  0.0000000  0.0000000  1.0000000 )
                  ( -1.0000000  0.0000000  0.0000000 )


      isym = 19     120 deg rotation - cart. axis [1,1,-1]       

 cryst.   s(19) = (    -1          1          0      )
                  (    -1          0          0      )
                  (    -1          0          1      )

 cart.    s(19) = (  0.0000000  1.0000000  0.0000000 )
                  (  0.0000000  0.0000000 -1.0000000 )
                  ( -1.0000000  0.0000000  0.0000000 )


      isym = 20     120 deg rotation - cart. axis [1,-1,1]       

 cryst.   s(20) = (     0          0         -1      )
                  (     0          1         -1      )
                  (     1          0         -1      )

 cart.    s(20) = (  0.0000000 -1.0000000  0.0000000 )
                  (  0.0000000  0.0000000 -1.0000000 )
                  (  1.0000000  0.0000000  0.0000000 )


      isym = 21     120 deg rotation - cart. axis [1,1,1]        

 cryst.   s(21) = (     0          1          0      )
                  (     0          0          1      )
                  (     1          0          0      )

 cart.    s(21) = (  0.0000000  0.0000000  1.0000000 )
                  (  1.0000000  0.0000000  0.0000000 )
                  (  0.0000000  1.0000000  0.0000000 )


      isym = 22     120 deg rotation - cart. axis [-1,1,-1]      

 cryst.   s(22) = (    -1          0          1      )
                  (    -1          1          0      )
                  (    -1          0          0      )

 cart.    s(22) = (  0.0000000  0.0000000  1.0000000 )
                  ( -1.0000000  0.0000000  0.0000000 )
                  (  0.0000000 -1.0000000  0.0000000 )


      isym = 23     120 deg rotation - cart. axis [1,-1,-1]      

 cryst.   s(23) = (     1          0         -1      )
                  (     0          0         -1      )
                  (     0          1         -1      )

 cart.    s(23) = (  0.0000000  0.0000000 -1.0000000 )
                  ( -1.0000000  0.0000000  0.0000000 )
                  (  0.0000000  1.0000000  0.0000000 )


      isym = 24     120 deg rotation - cart. axis [-1,-1,1]      

 cryst.   s(24) = (     0         -1          0      )
                  (     1         -1          0      )
                  (     0         -1          1      )

 cart.    s(24) = (  0.0000000  0.0000000 -1.0000000 )
                  (  1.0000000  0.0000000  0.0000000 )
                  (  0.0000000 -1.0000000  0.0000000 )


      isym = 25     inversion                                    

 cryst.   s(25) = (    -1          0          0      )    f =( -0.2500000 )
                  (     0         -1          0      )       ( -0.2500000 )
                  (     0          0         -1      )       ( -0.2500000 )

 cart.    s(25) = ( -1.0000000  0.0000000  0.0000000 )    f =( -0.3535534 )
                  (  0.0000000 -1.0000000  0.0000000 )       ( -0.3535534 )
                  (  0.0000000  0.0000000 -1.0000000 )       ( -0.3535534 )


      isym = 26     inv. 180 deg rotation - cart. axis [0,0,1]   

 cryst.   s(26) = (     0         -1          1      )    f =( -0.2500000 )
                  (    -1          0          1      )       ( -0.2500000 )
                  (     0          0          1      )       ( -0.2500000 )

 cart.    s(26) = (  1.0000000  0.0000000  0.0000000 )    f =( -0.3535534 )
                  (  0.0000000  1.0000000  0.0000000 )       ( -0.3535534 )
                  (  0.0000000  0.0000000 -1.0000000 )       ( -0.3535534 )


      isym = 27     inv. 180 deg rotation - cart. axis [0,1,0]   

 cryst.   s(27) = (     0          1         -1      )    f =( -0.2500000 )
                  (     0          1          0      )       ( -0.2500000 )
                  (    -1          1          0      )       ( -0.2500000 )

 cart.    s(27) = (  1.0000000  0.0000000  0.0000000 )    f =( -0.3535534 )
                  (  0.0000000 -1.0000000  0.0000000 )       ( -0.3535534 )
                  (  0.0000000  0.0000000  1.0000000 )       ( -0.3535534 )


      isym = 28     inv. 180 deg rotation - cart. axis [1,0,0]   

 cryst.   s(28) = (     1          0          0      )    f =( -0.2500000 )
                  (     1          0         -1      )       ( -0.2500000 )
                  (     1         -1          0      )       ( -0.2500000 )

 cart.    s(28) = ( -1.0000000  0.0000000  0.0000000 )    f =( -0.3535534 )
                  (  0.0000000  1.0000000  0.0000000 )       ( -0.3535534 )
                  (  0.0000000  0.0000000  1.0000000 )       ( -0.3535534 )


      isym = 29     inv. 180 deg rotation - cart. axis [1,1,0]   

 cryst.   s(29) = (     1          0         -1      )
                  (     0          1         -1      )
                  (     0          0         -1      )

 cart.    s(29) = (  0.0000000 -1.0000000  0.0000000 )
                  ( -1.0000000  0.0000000  0.0000000 )
                  (  0.0000000  0.0000000  1.0000000 )


      isym = 30     inv. 180 deg rotation - cart. axis [1,-1,0]  

 cryst.   s(30) = (     0          1          0      )
                  (     1          0          0      )
                  (     0          0          1      )

 cart.    s(30) = (  0.0000000  1.0000000  0.0000000 )
                  (  1.0000000  0.0000000  0.0000000 )
                  (  0.0000000  0.0000000  1.0000000 )


      isym = 31     inv.  90 deg rotation - cart. axis [0,0,-1]  

 cryst.   s(31) = (     0         -1          0      )
                  (     0         -1          1      )
                  (     1         -1          0      )

 cart.    s(31) = (  0.0000000 -1.0000000  0.0000000 )
                  (  1.0000000  0.0000000  0.0000000 )
                  (  0.0000000  0.0000000 -1.0000000 )


      isym = 32     inv.  90 deg rotation - cart. axis [0,0,1]   

 cryst.   s(32) = (    -1          0          1      )
                  (    -1          0          0      )
                  (    -1          1          0      )

 cart.    s(32) = (  0.0000000  1.0000000  0.0000000 )
                  ( -1.0000000  0.0000000  0.0000000 )
                  (  0.0000000  0.0000000 -1.0000000 )


      isym = 33     inv. 180 deg rotation - cart. axis [1,0,1]   

 cryst.   s(33) = (     1         -1          0      )
                  (     0         -1          0      )
                  (     0         -1          1      )

 cart.    s(33) = (  0.0000000  0.0000000 -1.0000000 )
                  (  0.0000000  1.0000000  0.0000000 )
                  ( -1.0000000  0.0000000  0.0000000 )


      isym = 34     inv. 180 deg rotation - cart. axis [-1,0,1]  

 cryst.   s(34) = (     0          0          1      )
                  (     0          1          0      )
                  (     1          0          0      )

 cart.    s(34) = (  0.0000000  0.0000000  1.0000000 )
                  (  0.0000000  1.0000000  0.0000000 )
                  (  1.0000000  0.0000000  0.0000000 )


      isym = 35     inv.  90 deg rotation - cart. axis [0,1,0]   

 cryst.   s(35) = (     0          0         -1      )
                  (     1          0         -1      )
                  (     0          1         -1      )

 cart.    s(35) = (  0.0000000  0.0000000 -1.0000000 )
                  (  0.0000000 -1.0000000  0.0000000 )
                  (  1.0000000  0.0000000  0.0000000 )


      isym = 36     inv.  90 deg rotation - cart. axis [0,-1,0]  

 cryst.   s(36) = (    -1          1          0      )
                  (    -1          0          1      )
                  (    -1          0          0      )

 cart.    s(36) = (  0.0000000  0.0000000  1.0000000 )
                  (  0.0000000 -1.0000000  0.0000000 )
                  ( -1.0000000  0.0000000  0.0000000 )


      isym = 37     inv. 180 deg rotation - cart. axis [0,1,1]   

 cryst.   s(37) = (    -1          0          0      )
                  (    -1          1          0      )
                  (    -1          0          1      )

 cart.    s(37) = (  1.0000000  0.0000000  0.0000000 )
                  (  0.0000000  0.0000000 -1.0000000 )
                  (  0.0000000 -1.0000000  0.0000000 )


      isym = 38     inv. 180 deg rotation - cart. axis [0,1,-1]  

 cryst.   s(38) = (     1          0          0      )
                  (     0          0          1      )
                  (     0          1          0      )

 cart.    s(38) = (  1.0000000  0.0000000  0.0000000 )
                  (  0.0000000  0.0000000  1.0000000 )
                  (  0.0000000  1.0000000  0.0000000 )


      isym = 39     inv.  90 deg rotation - cart. axis [-1,0,0]  

 cryst.   s(39) = (     0          1         -1      )
                  (     0          0         -1      )
                  (     1          0         -1      )

 cart.    s(39) = ( -1.0000000  0.0000000  0.0000000 )
                  (  0.0000000  0.0000000 -1.0000000 )
                  (  0.0000000  1.0000000  0.0000000 )


      isym = 40     inv.  90 deg rotation - cart. axis [1,0,0]   

 cryst.   s(40) = (     0         -1          1      )
                  (     1         -1          0      )
                  (     0         -1          0      )

 cart.    s(40) = ( -1.0000000  0.0000000  0.0000000 )
                  (  0.0000000  0.0000000  1.0000000 )
                  (  0.0000000 -1.0000000  0.0000000 )


      isym = 41     inv. 120 deg rotation - cart. axis [-1,-1,-1]

 cryst.   s(41) = (     0          0         -1      )    f =( -0.2500000 )
                  (    -1          0          0      )       ( -0.2500000 )
                  (     0         -1          0      )       ( -0.2500000 )

 cart.    s(41) = (  0.0000000 -1.0000000  0.0000000 )    f =( -0.3535534 )
                  (  0.0000000  0.0000000 -1.0000000 )       ( -0.3535534 )
                  ( -1.0000000  0.0000000  0.0000000 )       ( -0.3535534 )


      isym = 42     inv. 120 deg rotation - cart. axis [-1,1,1]  

 cryst.   s(42) = (    -1          1          0      )    f =( -0.2500000 )
                  (     0          1         -1      )       ( -0.2500000 )
                  (     0          1          0      )       ( -0.2500000 )

 cart.    s(42) = (  0.0000000  1.0000000  0.0000000 )    f =( -0.3535534 )
                  (  0.0000000  0.0000000 -1.0000000 )       ( -0.3535534 )
                  (  1.0000000  0.0000000  0.0000000 )       ( -0.3535534 )


      isym = 43     inv. 120 deg rotation - cart. axis [1,1,-1]  

 cryst.   s(43) = (     1         -1          0      )    f =( -0.2500000 )
                  (     1          0          0      )       ( -0.2500000 )
                  (     1          0         -1      )       ( -0.2500000 )

 cart.    s(43) = (  0.0000000 -1.0000000  0.0000000 )    f =( -0.3535534 )
                  (  0.0000000  0.0000000  1.0000000 )       ( -0.3535534 )
                  (  1.0000000  0.0000000  0.0000000 )       ( -0.3535534 )


      isym = 44     inv. 120 deg rotation - cart. axis [1,-1,1]  

 cryst.   s(44) = (     0          0          1      )    f =( -0.2500000 )
                  (     0         -1          1      )       ( -0.2500000 )
                  (    -1          0          1      )       ( -0.2500000 )

 cart.    s(44) = (  0.0000000  1.0000000  0.0000000 )    f =( -0.3535534 )
                  (  0.0000000  0.0000000  1.0000000 )       ( -0.3535534 )
                  ( -1.0000000  0.0000000  0.0000000 )       ( -0.3535534 )


      isym = 45     inv. 120 deg rotation - cart. axis [1,1,1]   

 cryst.   s(45) = (     0         -1          0      )    f =( -0.2500000 )
                  (     0          0         -1      )       ( -0.2500000 )
                  (    -1          0          0      )       ( -0.2500000 )

 cart.    s(45) = (  0.0000000  0.0000000 -1.0000000 )    f =( -0.3535534 )
                  ( -1.0000000  0.0000000  0.0000000 )       ( -0.3535534 )
                  (  0.0000000 -1.0000000  0.0000000 )       ( -0.3535534 )


      isym = 46     inv. 120 deg rotation - cart. axis [-1,1,-1] 

 cryst.   s(46) = (     1          0         -1      )    f =( -0.2500000 )
                  (     1         -1          0      )       ( -0.2500000 )
                  (     1          0          0      )       ( -0.2500000 )

 cart.    s(46) = (  0.0000000  0.0000000 -1.0000000 )    f =( -0.3535534 )
                  (  1.0000000  0.0000000  0.0000000 )       ( -0.3535534 )
                  (  0.0000000  1.0000000  0.0000000 )       ( -0.3535534 )


      isym = 47     inv. 120 deg rotation - cart. axis [1,-1,-1] 

 cryst.   s(47) = (    -1          0          1      )    f =( -0.2500000 )
                  (     0          0          1      )       ( -0.2500000 )
                  (     0         -1          1      )       ( -0.2500000 )

 cart.    s(47) = (  0.0000000  0.0000000  1.0000000 )    f =( -0.3535534 )
                  (  1.0000000  0.0000000  0.0000000 )       ( -0.3535534 )
                  (  0.0000000 -1.0000000  0.0000000 )       ( -0.3535534 )


      isym = 48     inv. 120 deg rotation - cart. axis [-1,-1,1] 

 cryst.   s(48) = (     0          1          0      )    f =( -0.2500000 )
                  (    -1          1          0      )       ( -0.2500000 )
                  (     0          1         -1      )       ( -0.2500000 )

 cart.    s(48) = (  0.0000000  0.0000000  1.0000000 )    f =( -0.3535534 )
                  ( -1.0000000  0.0000000  0.0000000 )       ( -0.3535534 )
                  (  0.0000000  1.0000000  0.0000000 )       ( -0.3535534 )


   Cartesian axes

     site n.     atom                  positions (alat units)
         1        Si     tau(   1) = (   0.0000000   0.0000000   0.0000000  )
         2        Si     tau(   2) = (   0.3535534   0.3535534   0.3535534  )

   Crystallographic axes

     site n.     atom                  positions (cryst. coord.)
         1        Si     tau(   1) = (  0.0000000  0.0000000  0.0000000  )
         2        Si     tau(   2) = (  0.2500000  0.2500000  0.2500000  )

     number of k points=    40
                       cart. coord. in units 2pi/alat
        k(    1) = (   0.0000000   0.0000000   0.0000000), wk =   0.0500000
        k(    2) = (   0.0000000   0.1414214   0.0000000), wk =   0.0500000
        k(    3) = (   0.0000000   0.2828427   0.0000000), wk =   0.0500000
        k(    4) = (   0.0000000   0.4242641   0.0000000), wk =   0.0500000
        k(    5) = (   0.0000000   0.5656854   0.0000000), wk =   0.0500000
        k(    6) = (   0.0000000   0.7071068   0.0000000), wk =   0.0500000
        k(    7) = (   0.1767767   0.7071068   0.0000000), wk =   0.0500000
        k(    8) = (   0.3535534   0.7071068   0.0000000), wk =   0.0500000
        k(    9) = (   0.3030458   0.6060915  -0.0000000), wk =   0.0500000
        k(   10) = (   0.2525381   0.5050763   0.0000000), wk =   0.0500000
        k(   11) = (   0.2020305   0.4040610   0.0000000), wk =   0.0500000
        k(   12) = (   0.1515229   0.3030458  -0.0000000), wk =   0.0500000
        k(   13) = (   0.1010153   0.2020305  -0.0000000), wk =   0.0500000
        k(   14) = (   0.0505076   0.1010153  -0.0000000), wk =   0.0500000
        k(   15) = (   0.0000000   0.0000000   0.0000000), wk =   0.0500000
        k(   16) = (   0.0707107   0.0707107   0.0707107), wk =   0.0500000
        k(   17) = (   0.1414214   0.1414214   0.1414214), wk =   0.0500000
        k(   18) = (   0.2121320   0.2121320   0.2121320), wk =   0.0500000
        k(   19) = (   0.2828427   0.2828427   0.2828427), wk =   0.0500000
        k(   20) = (   0.3535534   0.3535534   0.3535534), wk =   0.0500000
        k(   21) = (   0.3093592   0.4419417   0.3093592), wk =   0.0500000
        k(   22) = (   0.2651650   0.5303301   0.2651650), wk =   0.0500000
        k(   23) = (   0.2209709   0.6187184   0.2209709), wk =   0.0500000
        k(   24) = (   0.1767767   0.7071068   0.1767767), wk =   0.0500000
        k(   25) = (   0.2651650   0.7071068   0.0883883), wk =   0.0500000
        k(   26) = (   0.3535534   0.7071068   0.0000000), wk =   0.0500000
        k(   27) = (   0.3535534   0.6363961   0.0707107), wk =   0.0500000
        k(   28) = (   0.3535534   0.5656854   0.1414214), wk =   0.0500000
        k(   29) = (   0.3535534   0.4949747   0.2121320), wk =   0.0500000
        k(   30) = (   0.3535534   0.4242641   0.2828427), wk =   0.0500000
        k(   31) = (   0.3535534   0.3535534   0.3535534), wk =   0.0500000
        k(   32) = (   0.3889087   0.3889087   0.2828427), wk =   0.0500000
        k(   33) = (   0.4242641   0.4242641   0.2121320), wk =   0.0500000
        k(   34) = (   0.4596194   0.4596194   0.1414214), wk =   0.0500000
        k(   35) = (   0.4949747   0.4949747   0.0707107), wk =   0.0500000
        k(   36) = (   0.5303301   0.5303301   0.0000000), wk =   0.0500000
        k(   37) = (   0.3977476   0.5745243   0.0000000), wk =   0.0500000
        k(   38) = (   0.2651650   0.6187184   0.0000000), wk =   0.0500000
        k(   39) = (   0.1325825   0.6629126  -0.0000000), wk =   0.0500000
        k(   40) = (   0.0000000   0.7071068   0.0000000), wk =   0.0500000

                       cryst. coord.
        k(    1) = (   0.0000000   0.0000000   0.0000000), wk =   0.0500000
        k(    2) = (   0.1000000   0.0000000   0.1000000), wk =   0.0500000
        k(    3) = (   0.2000000   0.0000000   0.2000000), wk =   0.0500000
        k(    4) = (   0.3000000   0.0000000   0.3000000), wk =   0.0500000
        k(    5) = (   0.4000000   0.0000000   0.4000000), wk =   0.0500000
        k(    6) = (   0.5000000   0.0000000   0.5000000), wk =   0.0500000
        k(    7) = (   0.5000000   0.1250000   0.6250000), wk =   0.0500000
        k(    8) = (   0.5000000   0.2500000   0.7500000), wk =   0.0500000
        k(    9) = (   0.4285714   0.2142857   0.6428571), wk =   0.0500000
        k(   10) = (   0.3571429   0.1785714   0.5357143), wk =   0.0500000
        k(   11) = (   0.2857143   0.1428571   0.4285714), wk =   0.0500000
        k(   12) = (   0.2142857   0.1071429   0.3214286), wk =   0.0500000
        k(   13) = (   0.1428571   0.0714286   0.2142857), wk =   0.0500000
        k(   14) = (   0.0714286   0.0357143   0.1071429), wk =   0.0500000
        k(   15) = (   0.0000000   0.0000000   0.0000000), wk =   0.0500000
        k(   16) = (   0.1000000   0.1000000   0.1000000), wk =   0.0500000
        k(   17) = (   0.2000000   0.2000000   0.2000000), wk =   0.0500000
        k(   18) = (   0.3000000   0.3000000   0.3000000), wk =   0.0500000
        k(   19) = (   0.4000000   0.4000000   0.4000000), wk =   0.0500000
        k(   20) = (   0.5000000   0.5000000   0.5000000), wk =   0.0500000
        k(   21) = (   0.5312500   0.4375000   0.5312500), wk =   0.0500000
        k(   22) = (   0.5625000   0.3750000   0.5625000), wk =   0.0500000
        k(   23) = (   0.5937500   0.3125000   0.5937500), wk =   0.0500000
        k(   24) = (   0.6250000   0.2500000   0.6250000), wk =   0.0500000
        k(   25) = (   0.5625000   0.2500000   0.6875000), wk =   0.0500000
        k(   26) = (   0.5000000   0.2500000   0.7500000), wk =   0.0500000
        k(   27) = (   0.5000000   0.3000000   0.7000000), wk =   0.0500000
        k(   28) = (   0.5000000   0.3500000   0.6500000), wk =   0.0500000
        k(   29) = (   0.5000000   0.4000000   0.6000000), wk =   0.0500000
        k(   30) = (   0.5000000   0.4500000   0.5500000), wk =   0.0500000
        k(   31) = (   0.5000000   0.5000000   0.5000000), wk =   0.0500000
        k(   32) = (   0.4750000   0.4750000   0.5500000), wk =   0.0500000
        k(   33) = (   0.4500000   0.4500000   0.6000000), wk =   0.0500000
        k(   34) = (   0.4250000   0.4250000   0.6500000), wk =   0.0500000
        k(   35) = (   0.4000000   0.4000000   0.7000000), wk =   0.0500000
        k(   36) = (   0.3750000   0.3750000   0.7500000), wk =   0.0500000
        k(   37) = (   0.4062500   0.2812500   0.6875000), wk =   0.0500000
        k(   38) = (   0.4375000   0.1875000   0.6250000), wk =   0.0500000
        k(   39) = (   0.4687500   0.0937500   0.5625000), wk =   0.0500000
        k(   40) = (   0.5000000   0.0000000   0.5000000), wk =   0.0500000

     Dense  grid:     4573 G-vectors     FFT dimensions: (  24,  24,  24)

     Dynamical RAM for                 wfc:       0.03 MB

     Dynamical RAM for     wfc (w. buffer):       0.03 MB

     Dynamical RAM for           str. fact:       0.03 MB

     Dynamical RAM for           local pot:       0.00 MB

     Dynamical RAM for          nlocal pot:       0.16 MB

     Dynamical RAM for                qrad:       0.80 MB

     Dynamical RAM for          rho,v,vnew:       0.26 MB

     Dynamical RAM for           G-vectors:       0.15 MB

     Dynamical RAM for          h,s,v(r/c):       0.01 MB

     Dynamical RAM for          <psi|beta>:       0.00 MB

     Dynamical RAM for                 psi:       0.07 MB

     Dynamical RAM for                hpsi:       0.07 MB

     Dynamical RAM for                spsi:       0.07 MB

     Dynamical RAM for      wfcinit/wfcrot:       0.07 MB

     Dynamical RAM for           addusdens:       6.56 MB

     Estimated static dynamical RAM per process >       1.78 MB

     Estimated max dynamical RAM per process >       8.33 MB

     Estimated total dynamical RAM >      16.67 MB

     Check: negative core charge=   -0.000013

     The potential is recalculated from file :
     ../tmp/adit.save/charge-density

     Starting wfcs are    8 randomized atomic wfcs

     Band Structure Calculation
     Davidson diagonalization with overlap

     Computing kpt #:     1  of    40
     total cpu time spent up to now is        0.5 secs

     Computing kpt #:     2  of    40
     total cpu time spent up to now is        0.6 secs

     Computing kpt #:     3  of    40
     total cpu time spent up to now is        0.7 secs

     Computing kpt #:     4  of    40
     total cpu time spent up to now is        0.7 secs

     Computing kpt #:     5  of    40
     total cpu time spent up to now is        0.8 secs

     Computing kpt #:     6  of    40
     total cpu time spent up to now is        0.9 secs

     Computing kpt #:     7  of    40
     total cpu time spent up to now is        0.9 secs

     Computing kpt #:     8  of    40
     total cpu time spent up to now is        0.9 secs

     Computing kpt #:     9  of    40
     total cpu time spent up to now is        1.0 secs

     Computing kpt #:    10  of    40
     total cpu time spent up to now is        1.0 secs

     Computing kpt #:    11  of    40
     total cpu time spent up to now is        1.1 secs

     Computing kpt #:    12  of    40
     total cpu time spent up to now is        1.1 secs

     Computing kpt #:    13  of    40
     total cpu time spent up to now is        1.2 secs

     Computing kpt #:    14  of    40
     total cpu time spent up to now is        1.2 secs

     Computing kpt #:    15  of    40
     total cpu time spent up to now is        1.2 secs

     Computing kpt #:    16  of    40
     total cpu time spent up to now is        1.3 secs

     Computing kpt #:    17  of    40
     total cpu time spent up to now is        1.3 secs

     Computing kpt #:    18  of    40
     total cpu time spent up to now is        1.4 secs

     Computing kpt #:    19  of    40
     total cpu time spent up to now is        1.5 secs

     Computing kpt #:    20  of    40
     total cpu time spent up to now is        1.5 secs

     Computing kpt #:    21  of    40
     total cpu time spent up to now is        1.6 secs

     Computing kpt #:    22  of    40
     total cpu time spent up to now is        1.6 secs

     Computing kpt #:    23  of    40
     total cpu time spent up to now is        1.7 secs

     Computing kpt #:    24  of    40
     total cpu time spent up to now is        1.7 secs

     Computing kpt #:    25  of    40
     total cpu time spent up to now is        1.8 secs

     Computing kpt #:    26  of    40
     total cpu time spent up to now is        1.8 secs

     Computing kpt #:    27  of    40
     total cpu time spent up to now is        1.9 secs

     Computing kpt #:    28  of    40
     total cpu time spent up to now is        1.9 secs

     Computing kpt #:    29  of    40
     total cpu time spent up to now is        2.0 secs

     Computing kpt #:    30  of    40
     total cpu time spent up to now is        2.1 secs

     Computing kpt #:    31  of    40
     total cpu time spent up to now is        2.1 secs

     Computing kpt #:    32  of    40
     total cpu time spent up to now is        2.1 secs

     Computing kpt #:    33  of    40
     total cpu time spent up to now is        2.2 secs

     Computing kpt #:    34  of    40
     total cpu time spent up to now is        2.2 secs

     Computing kpt #:    35  of    40
     total cpu time spent up to now is        2.3 secs

     Computing kpt #:    36  of    40
     total cpu time spent up to now is        2.4 secs

     Computing kpt #:    37  of    40
     total cpu time spent up to now is        2.4 secs

     Computing kpt #:    38  of    40
     total cpu time spent up to now is        2.5 secs

     Computing kpt #:    39  of    40
     total cpu time spent up to now is        2.5 secs

     Computing kpt #:    40  of    40
     total cpu time spent up to now is        2.6 secs

     ethr =  1.25E-09,  avg # of iterations = 31.6

     total cpu time spent up to now is        2.6 secs

     End of band structure calculation

          k = 0.0000 0.0000 0.0000 (   537 PWs)   bands (ev):

    -5.7216   6.2525   6.2525   6.2525   8.7988   8.7988   8.7988   9.6199

          k = 0.0000 0.1414 0.0000 (   564 PWs)   bands (ev):

    -5.5467   5.3133   5.6708   5.6708   8.4208   9.5943   9.5943  10.4452

          k = 0.0000 0.2828 0.0000 (   572 PWs)   bands (ev):

    -5.0257   3.6270   4.7551   4.7551   7.6998  10.1310  11.1397  11.1397

          k = 0.0000 0.4243 0.0000 (   568 PWs)   bands (ev):

    -4.1711   1.8329   4.0115   4.0115   7.1007   8.6535  12.9020  12.9020

          k = 0.0000 0.5657 0.0000 (   568 PWs)   bands (ev):

    -3.0069   0.0682   3.5453   3.5453   6.8195   7.5494  14.7624  14.7624

          k = 0.0000 0.7071 0.0000 (   588 PWs)   bands (ev):

    -1.5732  -1.5732   3.3872   3.3872   6.9484   6.9484  16.3520  16.3520

          k = 0.1768 0.7071 0.0000 (   576 PWs)   bands (ev):

    -1.4946  -1.4946   2.8209   2.8209   8.2121   8.2121  14.0943  14.0943

          k = 0.3536 0.7071 0.0000 (   560 PWs)   bands (ev):

    -1.4079  -1.4079   2.3837   2.3837  10.5186  10.5186  11.2442  11.2442

          k = 0.3030 0.6061-0.0000 (   567 PWs)   bands (ev):

    -2.2002  -0.6629   2.1863   2.9694   9.9276  10.1169  10.7989  13.1208

          k = 0.2525 0.5051 0.0000 (   571 PWs)   bands (ev):

    -3.1258   0.2569   2.4871   3.6908   9.2690   9.9484  10.5382  13.8015

          k = 0.2020 0.4041 0.0000 (   568 PWs)   bands (ev):

    -4.0032   1.3489   3.1218   4.4542   8.8264  10.0782  10.3878  12.3962

          k = 0.1515 0.3030-0.0000 (   570 PWs)   bands (ev):

    -4.7357   2.6045   3.9731   5.1513   8.6070  10.0417  10.7074  11.1437

          k = 0.1010 0.2020-0.0000 (   561 PWs)   bands (ev):

    -5.2782   3.9963   4.9319   5.7114   8.5934   9.6403  10.0599  11.2609

          k = 0.0505 0.1010-0.0000 (   558 PWs)   bands (ev):

    -5.6101   5.4155   5.8229   6.1016   8.7145   9.1623   9.1949  10.3376

          k = 0.0000 0.0000 0.0000 (   537 PWs)   bands (ev):

    -5.7216   6.2525   6.2525   6.2525   8.7988   8.7988   8.7988   9.6199

          k = 0.0707 0.0707 0.0707 (   555 PWs)   bands (ev):

    -5.5907   5.1028   6.0521   6.0521   8.8154   9.0927   9.0927  10.5421

          k = 0.1414 0.1414 0.1414 (   564 PWs)   bands (ev):

    -5.2038   3.2362   5.6687   5.6687   8.4651   9.6018   9.6018  12.3066

          k = 0.2121 0.2121 0.2121 (   571 PWs)   bands (ev):

    -4.5878   1.4468   5.3323   5.3323   8.1055   9.7707   9.7707  13.8415

          k = 0.2828 0.2828 0.2828 (   571 PWs)   bands (ev):

    -3.8395  -0.0318   5.1191   5.1191   7.8671   9.6518   9.6518  14.0888

          k = 0.3536 0.3536 0.3536 (   568 PWs)   bands (ev):

    -3.3865  -0.7316   5.0473   5.0473   7.7853   9.5754   9.5754  13.9762

          k = 0.3094 0.4419 0.3094 (   573 PWs)   bands (ev):

    -3.2841  -0.6797   4.2866   4.8707   8.3646   9.5535   9.9600  14.3042

          k = 0.2652 0.5303 0.2652 (   570 PWs)   bands (ev):

    -2.9808  -0.5699   3.0354   4.4846   8.2666  10.6611  10.9656  13.3622

          k = 0.2210 0.6187 0.2210 (   566 PWs)   bands (ev):

    -2.4973  -0.6051   2.0984   4.0961   7.7856  11.6855  12.3569  12.5412

          k = 0.1768 0.7071 0.1768 (   572 PWs)   bands (ev):

    -1.9861  -0.9828   1.9335   3.8157   7.4426  10.3744  13.7108  14.2705

          k = 0.2652 0.7071 0.0884 (   576 PWs)   bands (ev):

    -1.8411  -1.0537   2.0489   3.1491   8.5633  10.4659  12.4116  12.6720

          k = 0.3536 0.7071 0.0000 (   560 PWs)   bands (ev):

    -1.4079  -1.4079   2.3837   2.3837  10.5186  10.5186  11.2442  11.2442

          k = 0.3536 0.6364 0.0707 (   570 PWs)   bands (ev):

    -2.0542  -0.8259   2.0987   2.9942   9.9170  10.2335  11.6479  12.0852

          k = 0.3536 0.5657 0.1414 (   566 PWs)   bands (ev):

    -2.6168  -0.5524   2.4048   3.7241   9.4853   9.5986  12.7408  13.1156

          k = 0.3536 0.4950 0.2121 (   564 PWs)   bands (ev):

    -3.0392  -0.5841   3.2814   4.4077   9.0293   9.3388  11.2623  14.0435

          k = 0.3536 0.4243 0.2828 (   570 PWs)   bands (ev):

    -3.2991  -0.6869   4.3858   4.8823   8.3484   9.4543   9.9591  14.2861

          k = 0.3536 0.3536 0.3536 (   568 PWs)   bands (ev):

    -3.3865  -0.7316   5.0473   5.0473   7.7853   9.5754   9.5754  13.9762

          k = 0.3889 0.3889 0.2828 (   574 PWs)   bands (ev):

    -3.3209  -0.6976   4.5195   4.9305   8.2268   9.5214   9.8252  14.2253

          k = 0.4243 0.4243 0.2121 (   571 PWs)   bands (ev):

    -3.1255  -0.6129   3.5297   4.6488   8.4264  10.0709  10.5050  13.9556

          k = 0.4596 0.4596 0.1414 (   570 PWs)   bands (ev):

    -2.8066  -0.5473   2.5914   4.3213   8.0697  11.3115  11.4875  12.7545

          k = 0.4950 0.4950 0.0707 (   571 PWs)   bands (ev):

    -2.3852  -0.6601   1.9971   4.0293   7.7017  11.4338  12.6599  12.8701

          k = 0.5303 0.5303 0.0000 (   572 PWs)   bands (ev):

    -1.9861  -0.9828   1.9335   3.8157   7.4426  10.3744  13.7108  14.2705

          k = 0.3977 0.5745 0.0000 (   567 PWs)   bands (ev):

    -2.1773  -0.7245   1.9329   3.3840   8.8164  11.3243  12.0304  12.0914

          k = 0.2652 0.6187 0.0000 (   569 PWs)   bands (ev):

    -2.1807  -0.6947   2.3378   2.8942   9.3487   9.6254  11.4527  13.6283

          k = 0.1326 0.6629-0.0000 (   577 PWs)   bands (ev):

    -1.9766  -1.0601   2.9913   3.0791   7.6407   7.8231  14.3421  15.4292

          k = 0.0000 0.7071 0.0000 (   588 PWs)   bands (ev):

    -1.5732  -1.5732   3.3872   3.3872   6.9484   6.9484  16.3520  16.3520

     Writing all to output data dir ../tmp/adit.save/ :
     XML data file, pseudopotentials, collected wavefunctions

     init_run     :      0.37s CPU      0.38s WALL (       1 calls)
     electrons    :      1.92s CPU      2.09s WALL (       1 calls)

     Called by init_run:
     wfcinit      :      0.00s CPU      0.00s WALL (       1 calls)
     wfcinit:atom :      0.00s CPU      0.00s WALL (      40 calls)
     wfcinit:wfcr :      0.06s CPU      0.08s WALL (      40 calls)
     potinit      :      0.01s CPU      0.01s WALL (       1 calls)
     hinit0       :      0.34s CPU      0.35s WALL (       1 calls)

     Called by electrons:
     c_bands      :      1.92s CPU      2.09s WALL (       1 calls)
     v_of_rho     :      0.00s CPU      0.00s WALL (       1 calls)
     v_h          :      0.00s CPU      0.00s WALL (       1 calls)
     v_xc         :      0.00s CPU      0.00s WALL (       1 calls)
     newd         :      0.01s CPU      0.01s WALL (       1 calls)

     Called by c_bands:
     init_us_2    :      0.00s CPU      0.01s WALL (      40 calls)
     cegterg      :      1.83s CPU      1.97s WALL (      85 calls)

     Called by sum_band:

     Called by *egterg:
     cdiaghg      :      0.16s CPU      0.17s WALL (    1303 calls)
     cegterg:over :      0.06s CPU      0.06s WALL (    1263 calls)
     cegterg:upda :      0.02s CPU      0.03s WALL (    1263 calls)
     cegterg:last :      0.04s CPU      0.05s WALL (     848 calls)
     h_psi        :      1.51s CPU      1.64s WALL (    1388 calls)
     s_psi        :      0.03s CPU      0.04s WALL (    1388 calls)
     g_psi        :      0.01s CPU      0.01s WALL (    1263 calls)

     Called by h_psi:
     h_psi:calbec :      0.07s CPU      0.08s WALL (    1388 calls)
     vloc_psi     :      1.39s CPU      1.51s WALL (    1388 calls)
                                        0.00s GPU  (    1388 calls)
     add_vuspsi   :      0.04s CPU      0.04s WALL (    1388 calls)

     General routines
     calbec       :      0.07s CPU      0.08s WALL (    1388 calls)
     fft          :      0.21s CPU      0.21s WALL (      12 calls)
     fftw         :      1.27s CPU      1.38s WALL (   14360 calls)
     davcio       :      0.00s CPU      0.00s WALL (      80 calls)

     Parallel routines

     PWSCF        :      2.41s CPU      2.60s WALL


   This run was terminated on:  18:23:29  10Sep2026            

=------------------------------------------------------------------------------=
   JOB DONE.
=------------------------------------------------------------------------------=
