adit: atom types 1=Cu (written by ASE)

108 atoms
1 atom types

0.0      10.845000000000001  xlo xhi
0.0      10.845000000000001  ylo yhi
0.0      10.845000000000001  zlo zhi

Masses

1      63.545999983653154 # Cu

Atoms # atomic

     1   1                       0                       0                       0
     2   1                       0      1.8075000000000001      1.8075000000000001
     3   1      1.8075000000000001                       0      1.8075000000000001
     4   1      1.8075000000000001      1.8075000000000001                       0
     5   1                       0                       0      3.6150000000000002
     6   1                       0      1.8075000000000001      5.4225000000000003
     7   1      1.8075000000000001                       0      5.4225000000000003
     8   1      1.8075000000000001      1.8075000000000001      3.6150000000000002
     9   1                       0                       0      7.2300000000000004
    10   1                       0      1.8075000000000001      9.0375000000000014
    11   1      1.8075000000000001                       0      9.0375000000000014
    12   1      1.8075000000000001      1.8075000000000001      7.2300000000000004
    13   1                       0      3.6150000000000002                       0
    14   1                       0      5.4225000000000003      1.8075000000000001
    15   1      1.8075000000000001      3.6150000000000002      1.8075000000000001
    16   1      1.8075000000000001      5.4225000000000003                       0
    17   1                       0      3.6150000000000002      3.6150000000000002
    18   1                       0      5.4225000000000003      5.4225000000000003
    19   1      1.8075000000000001      3.6150000000000002      5.4225000000000003
    20   1      1.8075000000000001      5.4225000000000003      3.6150000000000002
    21   1                       0      3.6150000000000002      7.2300000000000004
    22   1                       0      5.4225000000000003      9.0375000000000014
    23   1      1.8075000000000001      3.6150000000000002      9.0375000000000014
    24   1      1.8075000000000001      5.4225000000000003      7.2300000000000004
    25   1                       0      7.2300000000000004                       0
    26   1                       0      9.0375000000000014      1.8075000000000001
    27   1      1.8075000000000001      7.2300000000000004      1.8075000000000001
    28   1      1.8075000000000001      9.0375000000000014                       0
    29   1                       0      7.2300000000000004      3.6150000000000002
    30   1                       0      9.0375000000000014      5.4225000000000003
    31   1      1.8075000000000001      7.2300000000000004      5.4225000000000003
    32   1      1.8075000000000001      9.0375000000000014      3.6150000000000002
    33   1                       0      7.2300000000000004      7.2300000000000004
    34   1                       0      9.0375000000000014      9.0375000000000014
    35   1      1.8075000000000001      7.2300000000000004      9.0375000000000014
    36   1      1.8075000000000001      9.0375000000000014      7.2300000000000004
    37   1      3.6150000000000002                       0                       0
    38   1      3.6150000000000002      1.8075000000000001      1.8075000000000001
    39   1      5.4225000000000003                       0      1.8075000000000001
    40   1      5.4225000000000003      1.8075000000000001                       0
    41   1      3.6150000000000002                       0      3.6150000000000002
    42   1      3.6150000000000002      1.8075000000000001      5.4225000000000003
    43   1      5.4225000000000003                       0      5.4225000000000003
    44   1      5.4225000000000003      1.8075000000000001      3.6150000000000002
    45   1      3.6150000000000002                       0      7.2300000000000004
    46   1      3.6150000000000002      1.8075000000000001      9.0375000000000014
    47   1      5.4225000000000003                       0      9.0375000000000014
    48   1      5.4225000000000003      1.8075000000000001      7.2300000000000004
    49   1      3.6150000000000002      3.6150000000000002                       0
    50   1      3.6150000000000002      5.4225000000000003      1.8075000000000001
    51   1      5.4225000000000003      3.6150000000000002      1.8075000000000001
    52   1      5.4225000000000003      5.4225000000000003                       0
    53   1      3.6150000000000002      3.6150000000000002      3.6150000000000002
    54   1      3.6150000000000002      5.4225000000000003      5.4225000000000003
    55   1      5.4225000000000003      3.6150000000000002      5.4225000000000003
    56   1      5.4225000000000003      5.4225000000000003      3.6150000000000002
    57   1      3.6150000000000002      3.6150000000000002      7.2300000000000004
    58   1      3.6150000000000002      5.4225000000000003      9.0375000000000014
    59   1      5.4225000000000003      3.6150000000000002      9.0375000000000014
    60   1      5.4225000000000003      5.4225000000000003      7.2300000000000004
    61   1      3.6150000000000002      7.2300000000000004                       0
    62   1      3.6150000000000002      9.0375000000000014      1.8075000000000001
    63   1      5.4225000000000003      7.2300000000000004      1.8075000000000001
    64   1      5.4225000000000003      9.0375000000000014                       0
    65   1      3.6150000000000002      7.2300000000000004      3.6150000000000002
    66   1      3.6150000000000002      9.0375000000000014      5.4225000000000003
    67   1      5.4225000000000003      7.2300000000000004      5.4225000000000003
    68   1      5.4225000000000003      9.0375000000000014      3.6150000000000002
    69   1      3.6150000000000002      7.2300000000000004      7.2300000000000004
    70   1      3.6150000000000002      9.0375000000000014      9.0375000000000014
    71   1      5.4225000000000003      7.2300000000000004      9.0375000000000014
    72   1      5.4225000000000003      9.0375000000000014      7.2300000000000004
    73   1      7.2300000000000004                       0                       0
    74   1      7.2300000000000004      1.8075000000000001      1.8075000000000001
    75   1      9.0375000000000014                       0      1.8075000000000001
    76   1      9.0375000000000014      1.8075000000000001                       0
    77   1      7.2300000000000004                       0      3.6150000000000002
    78   1      7.2300000000000004      1.8075000000000001      5.4225000000000003
    79   1      9.0375000000000014                       0      5.4225000000000003
    80   1      9.0375000000000014      1.8075000000000001      3.6150000000000002
    81   1      7.2300000000000004                       0      7.2300000000000004
    82   1      7.2300000000000004      1.8075000000000001      9.0375000000000014
    83   1      9.0375000000000014                       0      9.0375000000000014
    84   1      9.0375000000000014      1.8075000000000001      7.2300000000000004
    85   1      7.2300000000000004      3.6150000000000002                       0
    86   1      7.2300000000000004      5.4225000000000003      1.8075000000000001
    87   1      9.0375000000000014      3.6150000000000002      1.8075000000000001
    88   1      9.0375000000000014      5.4225000000000003                       0
    89   1      7.2300000000000004      3.6150000000000002      3.6150000000000002
    90   1      7.2300000000000004      5.4225000000000003      5.4225000000000003
    91   1      9.0375000000000014      3.6150000000000002      5.4225000000000003
    92   1      9.0375000000000014      5.4225000000000003      3.6150000000000002
    93   1      7.2300000000000004      3.6150000000000002      7.2300000000000004
    94   1      7.2300000000000004      5.4225000000000003      9.0375000000000014
    95   1      9.0375000000000014      3.6150000000000002      9.0375000000000014
    96   1      9.0375000000000014      5.4225000000000003      7.2300000000000004
    97   1      7.2300000000000004      7.2300000000000004                       0
    98   1      7.2300000000000004      9.0375000000000014      1.8075000000000001
    99   1      9.0375000000000014      7.2300000000000004      1.8075000000000001
   100   1      9.0375000000000014      9.0375000000000014                       0
   101   1      7.2300000000000004      7.2300000000000004      3.6150000000000002
   102   1      7.2300000000000004      9.0375000000000014      5.4225000000000003
   103   1      9.0375000000000014      7.2300000000000004      5.4225000000000003
   104   1      9.0375000000000014      9.0375000000000014      3.6150000000000002
   105   1      7.2300000000000004      7.2300000000000004      7.2300000000000004
   106   1      7.2300000000000004      9.0375000000000014      9.0375000000000014
   107   1      9.0375000000000014      7.2300000000000004      9.0375000000000014
   108   1      9.0375000000000014      9.0375000000000014      7.2300000000000004
