11
Lattice="4.92 0.0 0.0 -2.46 4.260844986619438 0.0 0.0 -0.0 15.0" Properties=species:S:1:pos:R:3 pbc="T T T"
C        0.00000000       0.00000000       7.50000000
C        1.23000000       0.71014083       7.50000000
C       -1.23000000       2.13042249       7.50000000
C        0.00000000       2.84056332       7.50000000
C        2.46000000       0.00000000       7.50000000
C        3.69000000       0.71014083       7.50000000
C        1.23000000       2.13042249       7.50000000
C        2.46000000       2.84056332       7.50000000
O        1.23000000       1.42028166      10.89753933
H        1.23000000       2.18352066      10.30123033
H        1.23000000       0.65704266      10.30123033
