
     Program PWSCF v.7.5 starts on 12Sep2026 at  2:59: 0 

     This program is part of the open-source Quantum ESPRESSO suite
     for quantum simulation of materials; please cite
         "P. Giannozzi et al., J. Phys.:Condens. Matter 21 395502 (2009);
         "P. Giannozzi et al., J. Phys.:Condens. Matter 29 465901 (2017);
         "P. Giannozzi et al., J. Chem. Phys. 152 154105 (2020);
          URL http://www.quantum-espresso.org", 
     in publications or presentations arising from this work. More details at
     http://www.quantum-espresso.org/quote

     Parallel version (MPI & OpenMP), running on       1 processor cores
     Number of MPI processes:                 1
     Threads/MPI process:                     1

     MPI processes distributed on     1 nodes
     908 MiB available memory on the printing compute node when the environment starts

     Reading input from pw.in
Warning: card &CELL ignored
Warning: card &FCP ignored
Warning: card &RISM ignored

     Current dimensions of program PWSCF are:
     Max number of different atomic species (ntypx) = 10
     Max number of k-points (npk) =  40000
     Max angular momentum in pseudopotentials (lmaxx) =  4
     Message from routine setup:
     using ibrav=0 with symmetry is DISCOURAGED, use correct ibrav instead

     Subspace diagonalization in iterative solution of the eigenvalue problem:
     a serial algorithm will be used


     G-vector sticks info
     --------------------
     sticks:   dense  smooth     PW     G-vecs:    dense   smooth      PW
     Sum         295     295     91                 3287     3287     609

     Using Slab Decomposition



     bravais-lattice index     =            0
     lattice parameter (alat)  =       7.2558  a.u.
     unit-cell volume          =     270.1072 (a.u.)^3
     number of atoms/cell      =            2
     number of atomic types    =            1
     number of electrons       =         8.00
     number of Kohn-Sham states=            8
     kinetic-energy cutoff     =      20.0000  Ry
     charge density cutoff     =      80.0000  Ry
     scf convergence threshold =      1.0E-06
     mixing beta               =       0.7000
     number of iterations used =            8  plain     mixing
     Exchange-correlation= PBE
                           (   1   4   3   4   0   0   0)
     Hubbard projectors: atomic
     Hubbard parameters of DFT+U (Dudarev formulation) in eV:
     U(Si-3p) =  1.0000

     Internal variables: lda_plus_u =T, lda_plus_u_kind = 0

     Internal variables: orbital_resolved =F, hub_pot_fix =F, apply_U = F

     celldm(1)=   7.255773  celldm(2)=   0.000000  celldm(3)=   0.000000
     celldm(4)=   0.000000  celldm(5)=   0.000000  celldm(6)=   0.000000

     crystal axes: (cart. coord. in units of alat)
               a(1) = (   0.000000   0.707107   0.707107 )  
               a(2) = (   0.707107   0.000000   0.707107 )  
               a(3) = (   0.707107   0.707107   0.000000 )  

     reciprocal axes: (cart. coord. in units 2 pi/alat)
               b(1) = ( -0.707107  0.707107  0.707107 )  
               b(2) = (  0.707107 -0.707107  0.707107 )  
               b(3) = (  0.707107  0.707107 -0.707107 )  


     PseudoPot. # 1 for Si read from file:
     ./pseudo/Si.pbe-n-rrkjus_psl.1.0.0.UPF
     MD5 check sum: fa25574f73a70a4139f2adfbefec430c
     Pseudo is Ultrasoft + core correction, Zval =  4.0
     Generated using &quot;atomic&quot; code by A. Dal Corso  v.6.3
     Using radial grid of 1141 points,  6 beta functions with: 
                l(1) =   0
                l(2) =   0
                l(3) =   1
                l(4) =   1
                l(5) =   2
                l(6) =   2
     Q(r) pseudized with 0 coefficients 


     atomic species   valence    mass     pseudopotential
     Si                4.00    28.08500     Si( 1.00)

     Starting magnetic structure 
     atomic species   magnetization
     Si              0.200

     48 Sym. Ops., with inversion, found (24 have fractional translation)



   Cartesian axes

     site n.     atom                  positions (alat units)
         1        Si     tau(   1) = (   0.0000000   0.0000000   0.0000000  )
         2        Si     tau(   2) = (   0.3535534   0.3535534   0.3535534  )

     number of k points=     3  Gaussian smearing, width (Ry)=  0.0100
                       cart. coord. in units 2pi/alat
        k(    1) = (   0.0000000   0.0000000   0.0000000), wk =   0.1250000
        k(    2) = (  -0.3535534  -0.3535534   0.3535534), wk =   0.5000000
        k(    3) = (  -0.7071068   0.0000000   0.0000000), wk =   0.3750000

     Dense  grid:     3287 G-vectors     FFT dimensions: (  24,  24,  24)

     Estimated max dynamical RAM per process >      15.56 MB

     Check: negative core charge=   -0.000010
     Generating pointlists ...
     new r_m :   0.2526 (alat units)  1.8328 (a.u.) for type    1

     Initial potential from superposition of free atoms

     starting charge       7.9989, renormalised to       8.0000

     STARTING HUBBARD OCCUPATIONS:

     =================== HUBBARD OCCUPATIONS ===================
     ------------------------ ATOM    1 ------------------------
     Tr[ns(  1)] (up, down, total) =   2.00000  0.00000  2.00000
     Atomic magnetic moment for atom   1 =   2.00000
     SPIN  1
     eigenvalues:
       0.667  0.667  0.667
     eigenvectors (columns):
       1.000  0.000  0.000
       0.000  1.000  0.000
       0.000  0.000  1.000
     occupation matrix ns (before diag.):
       0.667  0.000  0.000
       0.000  0.667  0.000
       0.000  0.000  0.667
     SPIN  2
     eigenvalues:
       0.000  0.000  0.000
     eigenvectors (columns):
       1.000  0.000  0.000
       0.000  1.000  0.000
       0.000  0.000  1.000
     occupation matrix ns (before diag.):
       0.000  0.000  0.000
       0.000  0.000  0.000
       0.000  0.000  0.000
     ------------------------ ATOM    2 ------------------------
     Tr[ns(  2)] (up, down, total) =   2.00000  0.00000  2.00000
     Atomic magnetic moment for atom   2 =   2.00000
     SPIN  1
     eigenvalues:
       0.667  0.667  0.667
     eigenvectors (columns):
       1.000  0.000  0.000
       0.000  1.000  0.000
       0.000  0.000  1.000
     occupation matrix ns (before diag.):
       0.667  0.000  0.000
       0.000  0.667  0.000
       0.000  0.000  0.667
     SPIN  2
     eigenvalues:
       0.000  0.000  0.000
     eigenvectors (columns):
       1.000  0.000  0.000
       0.000  1.000  0.000
       0.000  0.000  1.000
     occupation matrix ns (before diag.):
       0.000  0.000  0.000
       0.000  0.000  0.000
       0.000  0.000  0.000

     Number of occupied Hubbard levels =    4.0000

     Atomic wfc used for Hubbard projectors are NOT orthogonalized

     Starting wfcs are    8 randomized atomic wfcs

     total cpu time spent up to now is        0.8 secs

     per-process dynamical memory:    11.7 Mb

     Self-consistent Calculation

     iteration #  1     ecut=    20.00 Ry     beta= 0.70
     Davidson diagonalization with overlap
     ethr =  1.00E-02,  avg # of iterations =  3.2

     =================== HUBBARD OCCUPATIONS ===================
     ------------------------ ATOM    1 ------------------------
     Tr[ns(  1)] (up, down, total) =   2.42449  2.17293  4.59742
     Atomic magnetic moment for atom   1 =   0.25156
     SPIN  1
     eigenvalues:
       0.808  0.808  0.808
     eigenvectors (columns):
       0.564 -0.483  0.670
       0.813  0.183 -0.552
       0.144  0.857  0.496
     occupation matrix ns (before diag.):
       0.808 -0.000  0.000
      -0.000  0.808 -0.000
       0.000 -0.000  0.808
     SPIN  2
     eigenvalues:
       0.724  0.724  0.724
     eigenvectors (columns):
       0.570 -0.525  0.632
       0.807  0.215 -0.549
       0.152  0.823  0.547
     occupation matrix ns (before diag.):
       0.724 -0.000  0.000
      -0.000  0.724 -0.000
       0.000 -0.000  0.724
     ------------------------ ATOM    2 ------------------------
     Tr[ns(  2)] (up, down, total) =   2.42449  2.17293  4.59742
     Atomic magnetic moment for atom   2 =   0.25156
     SPIN  1
     eigenvalues:
       0.808  0.808  0.808
     eigenvectors (columns):
       0.514 -0.498  0.698
       0.825  0.066 -0.561
       0.233  0.865  0.445
     occupation matrix ns (before diag.):
       0.808 -0.000  0.000
      -0.000  0.808 -0.000
       0.000 -0.000  0.808
     SPIN  2
     eigenvalues:
       0.724  0.724  0.724
     eigenvectors (columns):
       0.707 -0.372  0.601
       0.697  0.221 -0.682
       0.121  0.901  0.416
     occupation matrix ns (before diag.):
       0.724 -0.000  0.000
      -0.000  0.724 -0.000
       0.000 -0.000  0.724

     Number of occupied Hubbard levels =    9.1948

     Threshold (ethr) on eigenvalues was too large:
     Diagonalizing with lowered threshold

     Davidson diagonalization with overlap
     ethr =  8.42E-04,  avg # of iterations =  1.8

     total cpu time spent up to now is        1.1 secs

     total energy              =     -22.55468721 Ry
     estimated scf accuracy    <       0.07341601 Ry

     total magnetization       =     0.72 Bohr mag/cell
     absolute magnetization    =     0.72 Bohr mag/cell

     iteration #  2     ecut=    20.00 Ry     beta= 0.70
     Davidson diagonalization with overlap
     ethr =  9.18E-04,  avg # of iterations =  1.0

     total cpu time spent up to now is        1.2 secs

     total energy              =     -22.57441905 Ry
     estimated scf accuracy    <       0.00904106 Ry

     total magnetization       =     0.21 Bohr mag/cell
     absolute magnetization    =     0.21 Bohr mag/cell

     iteration #  3     ecut=    20.00 Ry     beta= 0.70
     Davidson diagonalization with overlap
     ethr =  1.13E-04,  avg # of iterations =  1.8

     total cpu time spent up to now is        1.3 secs

     total energy              =     -22.57789703 Ry
     estimated scf accuracy    <       0.00025295 Ry

     total magnetization       =     0.00 Bohr mag/cell
     absolute magnetization    =     0.01 Bohr mag/cell

     iteration #  4     ecut=    20.00 Ry     beta= 0.70
     Davidson diagonalization with overlap
     ethr =  3.16E-06,  avg # of iterations =  4.0

     total cpu time spent up to now is        1.4 secs

     total energy              =     -22.57797859 Ry
     estimated scf accuracy    <       0.00001679 Ry

     total magnetization       =     0.00 Bohr mag/cell
     absolute magnetization    =     0.00 Bohr mag/cell

     iteration #  5     ecut=    20.00 Ry     beta= 0.70
     Davidson diagonalization with overlap
     ethr =  2.10E-07,  avg # of iterations =  1.8

     total cpu time spent up to now is        1.5 secs

     total energy              =     -22.57798412 Ry
     estimated scf accuracy    <       0.00000210 Ry

     total magnetization       =     0.00 Bohr mag/cell
     absolute magnetization    =     0.00 Bohr mag/cell

     iteration #  6     ecut=    20.00 Ry     beta= 0.70
     Davidson diagonalization with overlap
     ethr =  2.63E-08,  avg # of iterations =  1.8

     Magnetic moment per site  (integrated on atomic sphere of radius R)
     atom   1 (R=0.253)  charge=  1.8491  magn= -0.0001
     atom   2 (R=0.253)  charge=  1.8491  magn= -0.0001

     total cpu time spent up to now is        1.6 secs

     End of self-consistent calculation

     =================== HUBBARD OCCUPATIONS ===================
     ------------------------ ATOM    1 ------------------------
     Tr[ns(  1)] (up, down, total) =   2.39846  2.39837  4.79683
     Atomic magnetic moment for atom   1 =   0.00009
     SPIN  1
     eigenvalues:
       0.799  0.799  0.799
     eigenvectors (columns):
       0.757 -0.331  0.564
       0.650  0.283 -0.706
       0.074  0.900  0.429
     occupation matrix ns (before diag.):
       0.799 -0.000  0.000
      -0.000  0.799 -0.000
       0.000 -0.000  0.799
     SPIN  2
     eigenvalues:
       0.799  0.799  0.799
     eigenvectors (columns):
       0.569 -0.466  0.678
       0.809  0.168 -0.563
       0.149  0.868  0.473
     occupation matrix ns (before diag.):
       0.799 -0.000  0.000
      -0.000  0.799 -0.000
       0.000 -0.000  0.799
     ------------------------ ATOM    2 ------------------------
     Tr[ns(  2)] (up, down, total) =   2.39846  2.39837  4.79683
     Atomic magnetic moment for atom   2 =   0.00009
     SPIN  1
     eigenvalues:
       0.799  0.799  0.799
     eigenvectors (columns):
       0.692 -0.361  0.626
       0.710  0.184 -0.679
       0.130  0.914  0.383
     occupation matrix ns (before diag.):
       0.799 -0.000  0.000
      -0.000  0.799 -0.000
       0.000 -0.000  0.799
     SPIN  2
     eigenvalues:
       0.799  0.799  0.799
     eigenvectors (columns):
       0.773 -0.255  0.580
       0.630  0.209 -0.748
       0.069  0.944  0.323
     occupation matrix ns (before diag.):
       0.799 -0.000  0.000
      -0.000  0.799 -0.000
       0.000 -0.000  0.799

     Number of occupied Hubbard levels =    9.5937

 ------ SPIN UP ------------


          k = 0.0000 0.0000 0.0000 (   411 PWs)   bands (ev):

    -5.5466   6.2961   6.2961   6.2961   8.8132   8.8132   8.8132   9.8474

          k =-0.3536-0.3536 0.3536 (   410 PWs)   bands (ev):

    -3.3711  -1.5024   4.9941   4.9941   7.8797   9.6367   9.6367  14.1228

          k =-0.7071 0.0000 0.0000 (   412 PWs)   bands (ev):

    -1.7596  -1.7596   3.1805   3.1805   6.9861   6.9861  16.4880  16.4881

 ------ SPIN DOWN ----------


          k = 0.0000 0.0000 0.0000 (   411 PWs)   bands (ev):

    -5.5472   6.2951   6.2951   6.2951   8.8130   8.8130   8.8130   9.8464

          k =-0.3536-0.3536 0.3536 (   410 PWs)   bands (ev):

    -3.3718  -1.5025   4.9933   4.9933   7.8792   9.6366   9.6366  14.1232

          k =-0.7071 0.0000 0.0000 (   412 PWs)   bands (ev):

    -1.7602  -1.7602   3.1800   3.1800   6.9861   6.9861  16.4873  16.4873

     the Fermi energy is     6.6322 ev

!    total energy              =     -22.57798452 Ry
     estimated scf accuracy    <       0.00000002 Ry
     smearing contrib. (-TS)   =      -0.00000952 Ry
     internal energy E=F+TS    =     -22.57797500 Ry

     The total energy is F=E-TS. E is the sum of the following terms:
     one-electron contribution =       5.28773608 Ry
     hartree contribution      =       1.24386965 Ry
     xc contribution           =     -12.38133513 Ry
     ewald contribution        =     -16.79894375 Ry
     Hubbard energy            =       0.07069816 Ry

     total magnetization       =    -0.00 Bohr mag/cell
     absolute magnetization    =     0.00 Bohr mag/cell

     convergence has been achieved in   6 iterations
     force_hub    :      0.00s CPU      0.01s WALL (       1 calls)
     dndtau       :      0.00s CPU      0.01s WALL (      36 calls)
     dprojdtau    :      0.00s CPU      0.00s WALL (      72 calls)
     matel_dSdtau :      0.00s CPU      0.00s WALL (      36 calls)

     Forces acting on atoms (cartesian axes, Ry/au):

     atom    1 type  1   force =     0.00000000   -0.00000000    0.00000000
     atom    2 type  1   force =     0.00000000    0.00000000    0.00000000

     Total force =     0.000000     Total SCF correction =     0.000000


     Computing stress (Cartesian axis) and pressure

     stres_hub    :      0.03s CPU      0.03s WALL (       1 calls)
     dprojdepsilo :      0.01s CPU      0.01s WALL (      54 calls)
     dprojdeps1   :      0.00s CPU      0.00s WALL (      54 calls)
     dprojdeps2   :      0.00s CPU      0.00s WALL (      54 calls)
     dprojdeps3   :      0.01s CPU      0.01s WALL (      54 calls)
          total   stress  (Ry/bohr**3)                   (kbar)     P=       74.05
   0.00050341  -0.00000000  -0.00000000           74.05       -0.00       -0.00
  -0.00000000   0.00050341  -0.00000000           -0.00       74.05       -0.00
  -0.00000000  -0.00000000   0.00050341           -0.00       -0.00       74.05


     Writing all to output data dir ./tmp/adit.save/ :
     XML data file, charge density, pseudopotentials, collected wavefunctions

     init_run     :      0.68s CPU      0.69s WALL (       1 calls)
     electrons    :      0.70s CPU      0.73s WALL (       1 calls)
     forces       :      0.04s CPU      0.04s WALL (       1 calls)
     stress       :      0.20s CPU      0.20s WALL (       1 calls)

     Called by init_run:
     wfcinit      :      0.17s CPU      0.17s WALL (       1 calls)
     potinit      :      0.03s CPU      0.03s WALL (       1 calls)
     hinit0       :      0.46s CPU      0.46s WALL (       1 calls)

     Called by electrons:
     c_bands      :      0.28s CPU      0.29s WALL (       7 calls)
     sum_band     :      0.24s CPU      0.25s WALL (       7 calls)
     v_of_rho     :      0.11s CPU      0.11s WALL (       7 calls)
     newd         :      0.09s CPU      0.10s WALL (       7 calls)
     mix_rho      :      0.01s CPU      0.01s WALL (       7 calls)

     Called by c_bands:
     init_us_2    :      0.02s CPU      0.02s WALL (     120 calls)
     cegterg      :      0.24s CPU      0.25s WALL (      42 calls)

     Called by *egterg:
     cdiaghg      :      0.01s CPU      0.02s WALL (     129 calls)
     h_psi        :      0.37s CPU      0.38s WALL (     141 calls)
     s_psi        :      0.01s CPU      0.01s WALL (     159 calls)
     g_psi        :      0.00s CPU      0.00s WALL (      93 calls)

     Called by h_psi:
     h_psi:calbec :      0.01s CPU      0.01s WALL (     141 calls)
     vloc_psi     :      0.35s CPU      0.36s WALL (     141 calls)
                                        0.00s GPU  (     141 calls)
     add_vuspsi   :      0.01s CPU      0.01s WALL (     141 calls)
     vhpsi        :      0.00s CPU      0.00s WALL (     141 calls)

     General routines
     calbec       :      0.03s CPU      0.03s WALL (    1128 calls)
     fft          :      0.27s CPU      0.27s WALL (     191 calls)
     ffts         :      0.00s CPU      0.00s WALL (      14 calls)
     fftw         :      0.36s CPU      0.36s WALL (    2088 calls)

     Parallel routines

     Hubbard U routines
     new_ns       :      0.00s CPU      0.00s WALL (       7 calls)
     vhpsi        :      0.00s CPU      0.00s WALL (     141 calls)
     force_hub    :      0.00s CPU      0.01s WALL (       1 calls)
     stres_hub    :      0.03s CPU      0.03s WALL (       1 calls)

     PWSCF        :      1.76s CPU      1.83s WALL


   This run was terminated on:   2:59: 2  12Sep2026            

=------------------------------------------------------------------------------=
   JOB DONE.
=------------------------------------------------------------------------------=
