      -----------------------------------------------------------      
     |                   =====================                   |     
     |                           x T B                           |     
     |                   =====================                   |     
     |                         S. Grimme                         |     
     |          Mulliken Center for Theoretical Chemistry        |     
     |                    University of Bonn                     |     
      -----------------------------------------------------------      

   * xtb version 6.7.1 (edcfbbe) compiled by 'conda@5dfe00f5fb80' on 2026-06-10

   xtb is free software: you can redistribute it and/or modify it under
   the terms of the GNU Lesser General Public License as published by
   the Free Software Foundation, either version 3 of the License, or
   (at your option) any later version.
   
   xtb is distributed in the hope that it will be useful,
   but WITHOUT ANY WARRANTY; without even the implied warranty of
   MERCHANTABILITY or FITNESS FOR A PARTICULAR PURPOSE.  See the
   GNU Lesser General Public License for more details.
   
   Cite this work as:
   * C. Bannwarth, E. Caldeweyher, S. Ehlert, A. Hansen, P. Pracht,
     J. Seibert, S. Spicher, S. Grimme, WIREs Comput. Mol. Sci., 2020, 11,
     e01493. DOI: 10.1002/wcms.1493
   
   for GFN2-xTB:
   * C. Bannwarth, S. Ehlert and S. Grimme., J. Chem. Theory Comput., 2019,
     15, 1652-1671. DOI: 10.1021/acs.jctc.8b01176
   for GFN1-xTB:
   * S. Grimme, C. Bannwarth, P. Shushkov, J. Chem. Theory Comput., 2017,
     13, 1989-2009. DOI: 10.1021/acs.jctc.7b00118
   for GFN0-xTB:
   * P. Pracht, E. Caldeweyher, S. Ehlert, S. Grimme, ChemRxiv, 2019, preprint.
     DOI: 10.26434/chemrxiv.8326202.v1
   for GFN-FF:
   * S. Spicher and S. Grimme, Angew. Chem. Int. Ed., 2020, 59, 15665-15673.
     DOI: 10.1002/anie.202004239
   
   for ALPB and GBSA implicit solvation:
   * S. Ehlert, M. Stahn, S. Spicher, S. Grimme, J. Chem. Theory Comput.,
     2021, 17, 4250-4261. DOI: 10.1021/acs.jctc.1c00471
   
   for ddCOSMO and CPCM-X implicit solvation:
   * M. Stahn, S. Ehlert, S. Grimme, J. Phys. Chem. A,
     2023, XX, XXXX-XXXX. DOI: 10.1021/acs.jpca.3c04382
   
   for DFT-D4:
   * E. Caldeweyher, C. Bannwarth and S. Grimme, J. Chem. Phys., 2017,
     147, 034112. DOI: 10.1063/1.4993215
   * E. Caldeweyher, S. Ehlert, A. Hansen, H. Neugebauer, S. Spicher,
     C. Bannwarth and S. Grimme, J. Chem. Phys., 2019, 150, 154122.
     DOI: 10.1063/1.5090222
   * E. Caldeweyher, J.-M. Mewes, S. Ehlert and S. Grimme, Phys. Chem. Chem. Phys.
     2020, 22, 8499-8512. DOI: 10.1039/D0CP00502A
   
   for sTDA-xTB:
   * S. Grimme and C. Bannwarth, J. Chem. Phys., 2016, 145, 054103.
     DOI: 10.1063/1.4959605
   
   in the mass-spec context:
   * V. Asgeirsson, C. Bauer and S. Grimme, Chem. Sci., 2017, 8, 4879.
     DOI: 10.1039/c7sc00601b
   * J. Koopman and S. Grimme, ACS Omega 2019, 4, 12, 15120-15133.
     DOI: 10.1021/acsomega.9b02011
   
   for metadynamics refer to:
   * S. Grimme, J. Chem. Theory Comput., 2019, 155, 2847-2862
     DOI: 10.1021/acs.jctc.9b00143
   
   for SPH calculations refer to:
   * S. Spicher and S. Grimme, J. Chem. Theory Comput., 2021, 17, 1701-1714
     DOI: 10.1021/acs.jctc.0c01306
   
   for ONIOM refer to:
   * C. Plett, A. Katbashev, S. Ehlert, S. Grimme, M. Bursch,
     Phys. Chem. Chem. Phys., 2023, 25, 17860-17868. DOI: 10.1039/D3CP02178E
   
   for DIPRO refer to:
   * J. Kohn, N. Gildemeister, S. Grimme, D. Fazzi, A. Hansen,
     J. Chem. Phys., 2023, just accepted.
   
   for PTB refer to:
   * S. Grimme, M. Mueller, A. Hansen, J. Chem. Phys., 2023, 158, 124111.
     DOI: 10.1063/5.0137838
   
   with help from (in alphabetical order)
   P. Atkinson, C. Bannwarth, F. Bohle, G. Brandenburg, E. Caldeweyher
   M. Checinski, S. Dohm, S. Ehlert, S. Ehrlich, I. Gerasimov, C. Hölzer
   A. Katbashev, J. Kohn, J. Koopman, C. Lavigne, S. Lehtola, F. März, M. Müller,
   F. Musil, H. Neugebauer, J. Pisarek, C. Plett, P. Pracht, F. Pultar,
   J. Seibert, P. Shushkov, S. Spicher, M. Stahn, M. Steiner, T. Strunk,
   J. Stückrath, T. Rose, and J. Unsleber
   
 * started run on 2026/09/12 at 02:57:48.343     
   ID    Z sym.   atoms
    1    8 O      1
    2    1 H      2, 3

           -------------------------------------------------
          |                Calculation Setup                |
           -------------------------------------------------

          program call               : xtb struct.xyz --gfn 2 --chrg 0 --uhf 0 --acc 1 --etemp 300 --input xtb.inp --parallel 1 --alpb water --json
          coordinate file            : struct.xyz
          omp threads                :                     1


molecular fragmentation (1/2 indicates fragments):
122
# atoms in fragment 1/2:     1     2
 fragment masses (1/2) :       16.00        2.02
CMA distance (Bohr)    :   1.890
constraining FC (au)   :  0.0500

           -------------------------------------------------
          |                 G F N 2 - x T B                 |
           -------------------------------------------------

        Reference                      10.1021/acs.jctc.8b01176
      * Hamiltonian:
        H0-scaling (s, p, d)           1.850000    2.230000    2.230000
        zeta-weighting                 0.500000
      * Dispersion:
        s8                             2.700000
        a1                             0.520000
        a2                             5.000000
        s9                             5.000000
      * Repulsion:
        kExp                           1.500000    1.000000
        rExp                           1.000000
      * Coulomb:
        alpha                          2.000000
        third order                    shell-resolved
        anisotropic                    true
        a3                             3.000000
        a5                             4.000000
        cn-shift                       1.200000
        cn-exp                         4.000000
        max-rad                        5.000000

      * Solvation model:               ALPB
        Solvent                        water
        Parameter file                 internal GFN2-xTB/ALPB
        Dielectric constant                8.0200E+01
        Reference state                gsolv [1 M gas/solution]
        Free energy shift                  1.0808E-03 Eh       6.7819E-01 kcal/mol
        Temperature                        2.9815E+02 K
        Density                            1.0000E+00 kg/L
        Solvent mass                       1.8000E+01 g/mol
        Interaction kernel             P16
        Born radius scaling (c1)           1.4744E+00
        Born radii integrator          GBOBC
        Born offset                        0.0000E+00 a0       0.0000E+00 AA
        H-bond correction              true
        Ion screening                  false
        Surface tension                    1.0000E-05 Eh       1.5569E+01 dyn/cm
        Grid points                               230 per atom

          ...................................................
          :                      SETUP                      :
          :.................................................:
          :  # basis functions                   6          :
          :  # atomic orbitals                   6          :
          :  # shells                            4          :
          :  # electrons                         8          :
          :  max. iterations                   250          :
          :  Hamiltonian                  GFN2-xTB          :
          :  restarted?                      false          :
          :  GBSA solvation                   true          :
          :  PC potential                    false          :
          :  electronic temp.          300.0000000     K    :
          :  accuracy                    1.0000000          :
          :  -> integral cutoff          0.2500000E+02      :
          :  -> integral neglect         0.1000000E-07      :
          :  -> SCF convergence          0.1000000E-05 Eh   :
          :  -> wf. convergence          0.1000000E-03 e    :
          :  Broyden damping             0.4000000          :
          :  net charge                          0          :
          :  unpaired electrons                  0          :
          ...................................................

 iter      E             dE          RMSdq      gap      omega  full diag
   1     -4.9843964 -0.498440E+01  0.509E+00    8.03       0.0  T
   2     -4.9978061 -0.134097E-01  0.194E+00    7.13       1.0  T
   3     -4.9994372 -0.163109E-02  0.604E-01    6.69       1.0  T
   4     -4.9993937  0.434570E-04  0.363E-01    6.84       1.0  T
   5     -4.9994933 -0.995467E-04  0.798E-02    6.73       1.0  T
   6     -4.9994979 -0.463960E-05  0.249E-02    6.76       2.3  T
   7     -4.9994983 -0.415321E-06  0.967E-03    6.75       6.0  T
   8     -4.9994984 -0.692411E-07  0.250E-04    6.75     231.3  T
   9     -4.9994984 -0.485940E-10  0.451E-05    6.75    1279.6  T

   *** convergence criteria satisfied after 9 iterations ***

         #    Occupation            Energy/Eh            Energy/eV
      -------------------------------------------------------------
         1        2.0000           -0.6402094             -17.4210
         2        2.0000           -0.5014137             -13.6442
         3        2.0000           -0.4770117             -12.9801
         4        2.0000           -0.4164934             -11.3334 (HOMO)
         5                         -0.1683859              -4.5820 (LUMO)
         6                         -0.1079873              -2.9385
      -------------------------------------------------------------
                  HL-Gap            0.2481076 Eh            6.7514 eV
             Fermi-level           -0.2924397 Eh           -7.9577 eV

 SCC (total)                   0 d,  0 h,  0 min,  0.005 sec
 SCC setup                      ...        0 min,  0.002 sec ( 44.862%)
 Dispersion                     ...        0 min,  0.000 sec (  3.949%)
 classical contributions        ...        0 min,  0.000 sec (  1.958%)
 integral evaluation            ...        0 min,  0.000 sec (  6.920%)
 iterations                     ...        0 min,  0.002 sec ( 29.709%)
 molecular gradient             ...        0 min,  0.001 sec ( 10.846%)
 printout                       ...        0 min,  0.000 sec (  1.400%)

         :::::::::::::::::::::::::::::::::::::::::::::::::::::
         ::                     SUMMARY                     ::
         :::::::::::::::::::::::::::::::::::::::::::::::::::::
         :: total energy              -4.997357957784 Eh    ::
         :: total w/o Gsasa/hb        -4.985378187690 Eh    ::
         :: gradient norm              0.210976117429 Eh/a0 ::
         :: HOMO-LUMO gap              6.751350718702 eV    ::
         ::.................................................::
         :: SCC energy                -4.999498392920 Eh    ::
         :: -> isotropic ES            0.068144855191 Eh    ::
         :: -> anisotropic ES          0.002333283675 Eh    ::
         :: -> anisotropic XC          0.000806327592 Eh    ::
         :: -> dispersion             -0.000181863550 Eh    ::
         :: -> Gsolv                  -0.029383426097 Eh    ::
         ::    -> Gelec               -0.017403656003 Eh    ::
         ::    -> Gsasa                0.002373135679 Eh    ::
         ::    -> Ghb                 -0.015433665471 Eh    ::
         ::    -> Gshift               0.001080759698 Eh    ::
         :: repulsion energy           0.002140435136 Eh    ::
         :: add. restraining           0.000000000000 Eh    ::
         :: total charge               0.000000000000 e     ::
         :::::::::::::::::::::::::::::::::::::::::::::::::::::

           -------------------------------------------------
          |                Property Printout                |
           -------------------------------------------------

    * Orbital Energies and Occupations

         #    Occupation            Energy/Eh            Energy/eV
      -------------------------------------------------------------
         1        2.0000           -0.6402094             -17.4210
         2        2.0000           -0.5014137             -13.6442
Note: The following floating-point exceptions are signalling: IEEE_DENORMAL
normal termination of xtb
         3        2.0000           -0.4770117             -12.9801
         4        2.0000           -0.4164934             -11.3334 (HOMO)
         5                         -0.1683859              -4.5820 (LUMO)
         6                         -0.1079873              -2.9385
      -------------------------------------------------------------
                  HL-Gap            0.2481076 Eh            6.7514 eV
             Fermi-level           -0.2924397 Eh           -7.9577 eV

     #   Z          covCN         q      C6AA      α(0)
     1   8 O        0.791    -0.726    29.473     7.277
     2   1 H        0.395     0.363     1.106     1.874
     3   1 H        0.395     0.363     1.106     1.874

 Mol. C6AA /au·bohr⁶  :         55.681532
 Mol. C8AA /au·bohr⁸  :        988.504610
 Mol. α(0) /au        :         11.023820


Wiberg/Mayer (AO) data.
largest (>0.10) Wiberg bond orders for each atom

 ---------------------------------------------------------------------------
     #   Z sym  total        # sym  WBO       # sym  WBO       # sym  WBO
 ---------------------------------------------------------------------------
     1   8 O    1.698 --     3 H    0.849     2 H    0.849
     2   1 H    0.868 --     1 O    0.849
     3   1 H    0.868 --     1 O    0.849
 ---------------------------------------------------------------------------

Topologies differ in total number of bonds
Writing topology from bond orders to xtbtopo.mol

molecular dipole:
                 x           y           z       tot (Debye)
 q only:        0.000       1.372       0.000
   full:       -0.000       1.452       0.000       3.692
molecular quadrupole (traceless):
                xx          xy          yy          xz          yz          zz
 q only:        0.501       0.000      -3.387       0.000       0.000       2.886
  q+dip:        0.110       0.000      -3.139       0.000      -0.000       3.029
   full:       -0.018       0.000      -3.097       0.000      -0.000       3.115


           -------------------------------------------------
          | TOTAL ENERGY               -4.997357957784 Eh   |
          | GRADIENT NORM               0.210976117429 Eh/α |
          | HOMO-LUMO GAP               6.751350718702 eV   |
           -------------------------------------------------

------------------------------------------------------------------------
 * finished run on 2026/09/12 at 02:57:48.364     
------------------------------------------------------------------------
 total:
 * wall-time:     0 d,  0 h,  0 min,  0.021 sec
 *  cpu-time:     0 d,  0 h,  0 min,  0.017 sec
 * ratio c/w:     0.809 speedup
 SCF:
 * wall-time:     0 d,  0 h,  0 min,  0.007 sec
 *  cpu-time:     0 d,  0 h,  0 min,  0.005 sec
 * ratio c/w:     0.670 speedup

