    3
MD iter: 0
    O     -0.00000000     -0.71603315     -0.00000000      6.59260702      0.03937217      1.55158764      1.87511473
    H      0.00000000     -0.14200298      0.77844804      0.70369649    -10.36659761      0.98690468     -8.30089297
    H     -0.00000000     -0.14200298     -0.77844804      0.70369649      9.74125200    -25.63067273    -21.48143524
    3
MD iter: 1
    O      0.00001969     -0.71525739      0.00093756      6.59431761      0.03962784      1.52721395      1.83686372
    H     -0.00518330     -0.14150927      0.77429882      0.70230453    -10.36888481      1.40311528     -7.96828594
    H      0.00487063     -0.15481806     -0.78918999      0.70337786      9.73947828    -25.65975750    -21.20650389
    3
MD iter: 2
    O      0.00003963     -0.71450594      0.00183686      6.59597801      0.04088373      1.45688257      1.72557168
    H     -0.01036889     -0.14059987      0.77047975      0.70099778    -10.38294543      2.61382346     -7.03056372
    H      0.00973948     -0.16766274     -0.79965455      0.70302421      9.73359177    -25.75339674    -20.37658164
    3
MD iter: 3
    O      0.00006056     -0.71380074      0.00266285      6.59754302      0.04394010      1.34676024      1.55300894
    H     -0.01556466     -0.13889573      0.76726943      0.69986502    -10.41740454      4.50171167     -5.64136227
    H      0.01460273     -0.18056753     -0.80956337      0.70259197      9.71950677    -25.89221903    -19.02498009
    3
MD iter: 4
    O      0.00008355     -0.71315978      0.00338916      6.59897848      0.04914660      1.20593836      1.34070562
    H     -0.02078183     -0.13609962      0.76484114      0.69897128    -10.47432596      6.86761568     -4.05233636
    H      0.01945481     -0.19354388     -0.81867102      0.70205024      9.69373363    -26.02145810    -17.24200583
    3
MD iter: 5
    O      0.00010968     -0.71259578      0.00400245      6.60026011      0.05622778      1.04549418      1.11683565
    H     -0.02603101     -0.13203238      0.76322080      0.69835218    -10.54711382      9.45633061     -2.57543079
    H      0.02428905     -0.20656916     -0.82679146      0.70138771      9.65405159    -26.06184837    -15.16319895
    3
MD iter: 6
    O      0.00013972     -0.71211550      0.00450468      6.60137155      0.06426501      0.87700247      0.91188606
    H     -0.03131768     -0.12665202      0.76226919      0.69801291    -10.62121427     11.99519551     -1.52963505
    H      0.02909849     -0.21957777     -0.83381679      0.70061554      9.60049716    -25.92457011    -12.95379338
    3
MD iter: 7
    O      0.00017386     -0.71172002      0.00491303      6.60230296      0.07185134      0.71084906      0.75393817
    H     -0.03663848     -0.12005118      0.76169364      0.69792765    -10.67770453     14.23780748     -1.18425356
    H      0.03387704     -0.23245991     -0.83972698      0.69976939      9.53649433    -25.52817791    -10.79049852
    3
MD iter: 8
    O      0.00021147     -0.71140580      0.00525743      6.60304954      0.07737931      0.55476839      0.66444621
    H     -0.04197992     -0.11243340      0.76108661      0.69804814    -10.69814617     16.00213512     -1.71317318
    H      0.03862109     -0.24506851     -0.84459011      0.69890232      9.46913548    -24.81348621     -8.84018371
    3
MD iter: 9
    O      0.00025112     -0.71116626      0.00557638      6.60361065      0.07937687      0.41305865      0.65539243
    H     -0.04731957     -0.10407338      0.75998240      0.69830875    -10.66865077     17.19243063     -3.17224299
    H      0.04333102     -0.25723312     -0.84855163      0.69808060      9.40791295    -23.75301493     -7.23731334
    3
MD iter: 10
    O      0.00029071     -0.71099360      0.00591168      6.60398823      0.07680872      0.28662250      0.72817898
    H     -0.05262933     -0.09527108      0.75791835      0.69863709    -10.58213383     17.80195164     -5.50096893
    H      0.04801204     -0.26877770     -0.85181315      0.69737467      9.36218578    -22.35435867     -6.06465151
    3
MD iter: 11
    O      0.00032776     -0.71088036      0.00630315      6.60418272      0.06929877      0.17357187      0.87395277
    H     -0.05787951     -0.08630820      0.75449006      0.69896615    -10.43874903     17.90165588     -8.54000419
    H      0.05267365     -0.27953924     -0.85460266      0.69685113      9.33808106    -20.65848686     -5.34093218
    3
MD iter: 12
    O      0.00035983     -0.71082058      0.00678374      6.60420163      0.05725476      0.07009559      1.07498155
    H     -0.06304275     -0.07741267      0.74939488      0.69923564    -10.24505987     17.62119329    -12.05598524
    H      0.05732763     -0.28938427     -0.85714062      0.69656273      9.33568618    -18.73451705     -5.01787845
    3
MD iter: 13
    O      0.00038485     -0.71081058      0.00737559      6.60403596      0.04190014     -0.02866735      1.30675541
    H     -0.06809723     -0.06873412      0.74246106      0.69941761    -10.01331391     17.12904089    -15.76775593
    H      0.06198469     -0.29822162     -0.85960710      0.69654643      9.34781663    -16.67371916     -4.98735723
    3
MD iter: 14
    O      0.00040160     -0.71084930      0.00808736      6.60368216      0.02520470     -0.12795949      1.54087543
    H     -0.07302925     -0.06032966      0.73366391      0.69949903     -9.76195793     16.61587317    -19.37407106
    H      0.06665074     -0.30601111     -0.86211490      0.69681881      9.36163324    -14.58350076     -5.09955553
    3
MD iter: 15
    O      0.00040998     -0.71093836      0.00891310      6.60313364      0.00967595     -0.23292257      1.74884801
    H     -0.07783587     -0.05215797      0.72312857      0.69950322     -9.51619865     16.27801723    -22.58648313
    H      0.07132427     -0.31276830     -0.86469480      0.69736315      9.36251608    -12.57852285     -5.19035877
    3
MD iter: 16
    O      0.00041124     -0.71108189      0.00983314      6.60238542     -0.00200927     -0.34803227      1.90629293
    H     -0.08252759     -0.04408202      0.71111658      0.69946830     -9.30591020     16.29474469    -25.16553149
    H      0.07599589     -0.31856452     -0.86729567      0.69814628      9.33782331    -10.76697018     -5.11199807
    3
MD iter: 17
    O      0.00040796     -0.71128602      0.01081702      6.60143614     -0.00748480     -0.47618718      1.99663402
    H     -0.08712965     -0.03588412      0.69799411      0.69945492     -9.16031911     16.79901156    -26.95238491
    H      0.08065001     -0.32352028     -0.86980007      0.69910894      9.27919971     -9.23576084     -4.76002644
    3
MD iter: 18
    O      0.00040376     -0.71155775      0.01182820      6.60029247     -0.00518917     -0.61745375      2.01350116
    H     -0.09168056     -0.02729609      0.68418515      0.69953056     -9.10133912     17.84772121    -27.88978734
    H      0.08526766     -0.32779237     -0.87205170      0.70017697      9.18375836     -8.04074252     -4.09052376
    3
MD iter: 19
    O      0.00040278     -0.71190324      0.01282964      6.59897052      0.00522531     -0.76783533      1.96150498
    H     -0.09622706     -0.01804380      0.67011623      0.69976019     -9.13760395     19.39927468    -28.02935775
    H      0.08982978     -0.33155734     -0.87388865      0.70126929      9.05461067     -7.20379491     -3.12510127
    3
MD iter: 20
    O      0.00040899     -0.71232546      0.01378933      6.59749598      0.02265309     -0.91854285      1.85532476
    H     -0.10081646     -0.00790028      0.65616105      0.70019595     -9.26063460     21.30488694    -27.52305095
    H      0.09432056     -0.33499475     -0.87517611      0.70230807      8.90083694     -6.71572919     -1.94495447
    3
MD iter: 21
    O      0.00042543     -0.71282176      0.01468492      6.59590298      0.04455347     -1.05632438      1.71715447
    H     -0.10548748      0.00326061      0.64259383      0.70086808     -9.44452970     23.32059261    -26.59691274
    H      0.09873041     -0.33827290     -0.87583354      0.70322894      8.73688974     -6.54305949     -0.67654265
    3
MD iter: 22
    O      0.00045354     -0.71338189      0.01550668      6.59423250      0.06728480     -1.16520684      1.57280074
    H     -0.11026200      0.01542273      0.62956120      0.70178250     -9.65014232     25.14378578    -25.50922282
    H      0.10305841     -0.34153852     -0.87585279      0.70398501      8.58146214     -6.63687955      0.52852857
    3
MD iter: 23
    O      0.00049273     -0.71398723      0.01625811      6.59253035      0.08670505     -1.22929713      1.44725355
    H     -0.11513987      0.02841011      0.61707848      0.70290468     -9.83297385     26.46720331    -24.50264388
    H      0.10731391     -0.34491132     -0.87530502      0.70456497      8.45584300     -6.94235512      1.51600768
    3
MD iter: 24
    O      0.00054028     -0.71461160      0.01695445      6.59084613      0.09890941     -1.23579740      1.36061436
    H     -0.12009835      0.04189891      0.60504993      0.70417950     -9.95254651     27.03608038    -23.76215155
    H      0.11151719     -0.34848321     -0.87433641      0.70497438      8.38157465     -7.40798866      2.15159999
    3
MD iter: 25
    O      0.00059168     -0.71522353      0.01761928      6.58923153      0.10091090     -1.17721513      1.32526377
    H     -0.12509638      0.05545697      0.59330672      0.70552143     -9.98031962     26.69133148    -23.38987104
    H      0.11569884     -0.35232216     -0.87315265      0.70524704      8.37755826     -7.99369833      2.34079078
    3
MD iter: 26
    O      0.00064122     -0.71578925      0.01828018      6.58773833      0.09111475     -1.05225049      1.34468934
    H     -0.13008219      0.06859979      0.58165179      0.70682945     -9.90432792     25.38945953    -23.40047889
    H      0.11989769     -0.35647961     -0.87199478      0.70543222      8.45715814     -8.67663174      2.04286348
    3
MD iter: 27
    O      0.00068281     -0.71627597      0.01896420      6.58641515      0.06954391     -0.86550747      1.41375985
    H     -0.13500243      0.08085097      0.56990221      0.70799868     -9.73035360     23.20073689    -23.73228437
    H      0.12415745     -0.36100023     -0.87110939      0.70558616      8.62579213     -9.45393670      1.27762642
    3
MD iter: 28
    O      0.00071075     -0.71665462      0.01969375      6.58530354      0.03781983     -0.62640796      1.52009187
    H     -0.13981114      0.09179705      0.55792284      0.70893409     -9.48004380     20.29079165    -24.26731796
    H      0.12852228     -0.36593226     -0.87071741      0.70576237      8.87935386    -10.34159379      0.12379524
    3
MD iter: 29
    O      0.00072060     -0.71690196      0.02048348      6.58443404     -0.00103968     -0.34787603      1.64603496
    H     -0.14447710      0.10112954      0.54564827      0.70956309     -9.18715108     16.89430203    -24.85326905
    H      0.13303193     -0.37133632     -0.87098603      0.70600287      9.20366422    -11.36900921     -1.29059964
    3
MD iter: 30
    O      0.00070970     -0.71700200      0.02133821      6.58382334     -0.04292799     -0.04528383      1.77092205
    H     -0.14898898      0.10867272      0.53309407      0.70984438     -8.89349242     13.28943678    -25.32307689
    H      0.13771694     -0.37729049     -0.87200747      0.70633228      9.57531491    -12.57019651     -2.80436551
    3
MD iter: 31
    O      0.00067770     -0.71694697      0.02225209      6.58347255     -0.08303191      0.26429465      1.87352142
    H     -0.15335839      0.11439857      0.52035916      0.70977658     -8.64566611      9.77602068    -25.51309161
    H      0.14259457     -0.38389041     -0.87378763      0.70675087      9.96445674    -13.97379588     -4.24393012
    3
MD iter: 32
    O      0.00062676     -0.71673788      0.02320892      6.58337000     -0.11631601      0.56293802      1.93471285
    H     -0.15762123      0.11843116      0.50762008      0.70939118     -8.49212113      6.65338746    -25.28204678
    H      0.14766642     -0.39124402     -0.87624594      0.70723882     10.33956096    -15.59449622     -5.44687457
    3
MD iter: 33
    O      0.00056154     -0.71638468      0.02418386      6.58348321     -0.13812143      0.83329567      1.94009246
    H     -0.16183741      0.12103957      0.49511626      0.70876092     -8.47897877      4.19216560    -24.52975720
    H      0.15291854     -0.39946230     -0.87922695      0.70775587     10.67275265    -17.42734788     -6.28460809
    3
MD iter: 34
    O      0.00048883     -0.71590559      0.02514623      6.58378284     -0.14482699      1.06058773      1.88200136
    H     -0.16608817      0.12261588      0.48312602      0.70797467     -8.64357705      2.59973488    -23.21216270
    H      0.15832418     -0.40864790     -0.88252203      0.70824249     10.94385498    -19.44498244     -6.67954535
    3
MD iter: 35
    O      0.00041690     -0.71532533      0.02606336      6.58422869     -0.13447762      1.23480358      1.76063705
    H     -0.17046994      0.12363520      0.47193527      0.70713731     -9.00635029      1.98513938    -21.35077578
    H      0.16384835     -0.41888341     -0.88589793      0.70863399     11.14224985    -21.59744622     -6.61331076
    3
MD iter: 36
    O      0.00035452     -0.71467219      0.02690465      6.58478532     -0.10726521      1.35249373      1.58412475
    H     -0.17508392      0.12459855      0.46180231      0.70634826     -9.56303385      2.33282340    -19.03513871
    H      0.16945306     -0.43022059     -0.88912718      0.70886643     11.26672041    -23.81439542     -6.12541411
    3
MD iter: 37
    O      0.00030978     -0.71397434      0.02764554      6.58542468     -0.06577587      1.41766430      1.36765571
    H     -0.18002234      0.12596581      0.45292348      0.70568860    -10.27930330      3.49259361    -16.41768772
    H      0.17510215     -0.44267167     -0.89201590      0.70888672     11.32401730    -26.00926569     -5.30470105
    3
MD iter: 38
    O      0.00028884     -0.71325602      0.02827072      6.58612881     -0.01491271      1.44144380      1.13181977
    H     -0.18535266      0.12808822      0.44540363      0.70521020    -11.09020894      5.19161150    -13.70054643
    H      0.18076499     -0.45620320     -0.89442570      0.70866099     11.32706664    -28.08597193     -4.27607510
    3
MD iter: 39
    O      0.00029490     -0.71253418      0.02877625      6.58689024      0.03863048      1.44025167      0.90012889
    H     -0.19110305      0.13115364      0.43923633      0.70493040    -11.90708756      7.07391221    -11.11259548
    H      0.18641913     -0.47073354     -0.89628769      0.70817937     11.29352211    -29.94933798     -3.18409456
    3
MD iter: 40
    O      0.00032747     -0.71181661      0.02917026      6.58771183      0.08736119      1.43267294      0.69584504
    H     -0.19725302      0.13515855      0.43429825      0.70482537    -12.63172754      8.76293264     -8.87820101
    H      0.19205190     -0.48613555     -0.89760761      0.70746280     11.24417532    -31.51798592     -2.17386157
