    3
MD iter: 0
    O      0.00000000     -1.00000000      0.00000000      6.46354747     -2.06085139     -0.49400828     -0.65603951
    H      0.00000000      0.00000000      0.78306400      0.76822626     25.16207910     20.49082514     -1.19613637
    H      0.00000000      0.00000000     -0.78306400      0.76822626      7.57029276    -12.64452295     11.61597028
    3
MD iter: 10
    O     -0.00877669     -0.94540310      0.00293399      6.60451589     -2.07000132     10.55248407      4.48806936
    H      0.11010512     -0.40057644      0.61497607      0.69827761     25.75435804   -101.91057327      3.10656962
    H      0.02929452     -0.46658258     -0.66157651      0.69720649      7.12334151    -65.69386123    -74.39029029
    3
MD iter: 20
    O     -0.02815491     -0.93408552      0.00375629      6.59911843     -3.26807410      2.87892607     -1.81550971
    H      0.35623226     -0.44839128      1.09212331      0.70479632     36.96972975    -11.00815466     23.95457023
    H      0.09095040     -0.59852417     -1.15178424      0.69608525     14.93688370    -34.71764527      4.88105522
    3
MD iter: 30
    O     -0.04028117     -0.91348451      0.00869474      6.61947415     -6.73933189      1.14179651      7.19617511
    H      0.40812239     -0.62654013      0.62429154      0.68910277     32.35458742    -22.91403433   -110.44166969
    H      0.23166095     -0.74757989     -0.76238959      0.69142309     74.68579307      4.77895284     -3.85472263
    3
MD iter: 40
    O     -0.09706895     -0.92389354      0.01779846      6.47142637     -3.42888463      0.84311123     -1.29505545
    H      0.96600277     -0.49228602      0.65595929      0.78295939     48.58695593      3.17390195     -2.71451979
    H      0.57573715     -0.71650809     -0.93865113      0.74561424      5.87380089    -16.56498415     23.28380324
    3
MD iter: 50
    O     -0.06238900     -0.90105154      0.01657388      6.59835553      9.96807034      6.31108397      6.00717513
    H      0.64483098     -0.67948437      0.47523998      0.70186983   -128.91369007    -57.63315890    -34.46472949
    H      0.34608959     -0.89210769     -0.73848185      0.69977463    -29.40853827    -42.60538702    -60.94685168
    3
MD iter: 60
    O     -0.06549554     -0.88553696      0.00764409      6.56280876      0.08398477      2.16925637     -5.40193628
    H      0.82671767     -0.72842348      0.93420994      0.73820268     36.42644081     -9.15854663     61.80768036
    H      0.21354378     -1.08958571     -1.05562061      0.69898857    -37.76036552    -25.29561449     23.99093052
    3
MD iter: 70
    O     -0.04578141     -0.86891581      0.01005179      6.62447993      4.93863313      6.07993102     10.14703870
    H      0.59754510     -0.86519931      0.65372893      0.68769891   -100.76171005    -41.11560989   -142.69222477
    H      0.12959818     -1.21680258     -0.81338084      0.68782116     22.32171357    -55.45154852    -18.47254665
    3
MD iter: 80
    O     -0.07590161     -0.83805857      0.00370486      6.51041183     -4.65614534      3.37599214     -4.92935075
    H      0.98675918     -1.15188444      0.72350780      0.78454999     76.78819118    -44.31599859     29.82300801
    H      0.21878132     -1.42022105     -0.78235178      0.70503818     -2.83493032     -9.30467027     48.46955691
    3
MD iter: 90
    O     -0.06031435     -0.83239263      0.00654209      6.55864490     10.53757976     -0.86477850      6.38226584
    H      0.80485678     -1.15051412      0.56806601      0.73270345   -143.21723628     49.32469252    -82.41422984
    H      0.15311215     -1.51158316     -0.67197363      0.70865165    -24.15047392    -35.58947048    -18.95489332
    3
MD iter: 100
    O     -0.04681404     -0.83686582     -0.00756049      6.57031883     -1.89515712     -0.44539178     -7.49524490
    H      0.82464540     -1.08731490      0.79322271      0.74322764     84.63466541    -11.98728179    107.20059217
    H     -0.08110105     -1.50373499     -0.67313986      0.68645353    -54.53400528     19.06141110     11.84590664
    3
MD iter: 110
    O     -0.02783376     -0.83355548     -0.00619903      6.59334018      8.46522573     -0.26933592      5.44360566
    H      0.74165942     -1.06209119      0.79736043      0.71163181   -112.10453966     17.04560593   -104.61980436
    H     -0.29957765     -1.58153661     -0.69890169      0.69502801    -22.34810314    -12.76776064     18.15936125
    3
MD iter: 120
    O     -0.02149525     -0.82417404     -0.02129741      6.57345847     -3.19186671      7.72762316     -7.32988325
    H      0.65968294     -1.24909843      0.78208842      0.73904945     73.11642625    -78.24600549     94.25618936
    H     -0.31827518     -1.54353405     -0.44382294      0.68749208    -22.42020993    -44.49134253     22.16388084
    3
MD iter: 130
    O     -0.01096897     -0.80453515     -0.02447452      6.52302302      5.18960577     -4.66294469      3.83150732
    H      0.62991001     -1.33225339      0.77649272      0.74240030    -78.38152048     49.35378681    -90.95743740
    H     -0.45569050     -1.77230247     -0.38776549      0.73457668     -4.04465850     24.70746764     30.10184983
    3
MD iter: 140
    O     -0.00521905     -0.82742207     -0.02969627      6.58314575     -0.22933331      3.79611121     -5.30341203
    H      0.59631613     -1.22737562      0.75403645      0.72564463     87.35474568    -29.01638504    110.20019180
    H     -0.51342228     -1.51366863     -0.28237252      0.69120962    -83.71225920    -31.27700827    -25.96643528
    3
MD iter: 150
    O      0.00949489     -0.82666139     -0.03015012      6.56452733      3.27976366     -5.88601251      3.73008265
    H      0.65020259     -1.17320499      0.82193187      0.71441421    -69.42904506     43.54297293    -84.43078597
    H     -0.80100940     -1.57992112     -0.34305939      0.72105847     17.33676705     49.94419009     25.18612008
    3
MD iter: 160
    O      0.01124591     -0.84202251     -0.04001814      6.59658899      3.64729138      5.89684919     -7.28974677
    H      0.54985545     -1.14760555      0.80054437      0.71372409     50.77928860    -40.18113606    103.42601841
    H     -0.72847360     -1.36154090     -0.16493879      0.68968692   -108.70898596    -53.47814522     12.35656663
    3
MD iter: 170
    O      0.03016312     -0.83340405     -0.04944863      6.53958058      0.82460200     -4.41217003      3.53731936
    H      0.49694963     -1.18834770      0.84313701      0.71550548    -65.80927897     26.05570137    -85.00687398
    H     -0.97602851     -1.45768519     -0.05774761      0.74491394     52.71217770     44.02251506     28.82385511
    3
MD iter: 180
    O      0.02385358     -0.84734592     -0.05597683      6.57443031      5.40541700      3.24691277     -6.26223144
    H      0.43865662     -1.19045705      0.84153716      0.72521001     47.90944965    -24.00818224     82.43389117
    H     -0.81752147     -1.23413808      0.04753923      0.70035968   -133.76334472    -27.56232709     17.02873319
    3
MD iter: 190
    O      0.03876533     -0.85231946     -0.05410400      6.55208997     -2.17738762     -5.40056547      6.11536577
    H      0.49157024     -1.13369328      0.80091867      0.70043640    -27.76969860     38.82239157    -85.77609892
    H     -1.10727751     -1.21190729      0.05841167      0.74747364     62.35300789     46.95444695    -11.35386727
    3
MD iter: 200
    O      0.02082565     -0.87107084     -0.05216553      6.60613890      7.22697173     -0.51993648     -4.23611429
    H      0.58262696     -1.06953847      0.80117174      0.70553982     38.73975490     -3.11082508     50.00664635
    H     -0.91339944     -0.97823520      0.02737002      0.68832128   -153.52528810     11.36894323     17.27528798
