648
Lattice="18.620600 0.000000 0.000000 0.000000 18.620600 0.000000 0.000000 0.000000 18.620600" Properties=species:S:1:pos:R:3 pbc="T T T" step=50
O 1.814377 6.254985 1.694295
H 0.861344 6.304981 1.993006
H 1.854892 5.870438 0.772079
O 2.306583 2.775624 10.003473
H 2.720810 2.219587 10.724055
H 1.370492 2.464652 9.839063
O 18.828846 4.090828 6.327989
H 17.969500 4.278641 6.803647
H 18.660892 3.454518 5.575060
O 5.287035 12.603103 12.090943
H 4.653934 13.243800 11.656559
H 4.899468 12.286996 12.956892
O 15.444437 15.087949 7.112735
H 14.761043 14.587760 7.644510
H 15.039659 15.389631 6.249518
O 17.694841 6.028287 8.469368
H 18.300119 6.764289 8.166153
H 17.980501 5.713380 9.374483
O 11.288079 7.149417 7.064333
H 11.523738 8.100751 6.865768
H 10.723516 7.110994 7.888828
O 17.915388 6.181125 2.201875
H 17.694242 5.936169 1.257899
H 17.145412 5.948015 2.795843
O 7.289707 11.545636 10.342826
H 6.745022 11.841026 11.127723
H 7.753318 12.336045 9.942428
O 8.952966 7.490000 18.053808
H 8.732109 8.138490 18.782289
H 9.122393 7.988656 17.203728
O 6.588318 9.868743 6.682153
H 7.220660 9.887693 7.456610
H 5.926255 10.612524 6.774143
O 7.218184 11.293176 18.156529
H 7.580435 12.107604 18.609829
H 6.340399 11.511643 17.730189
O 3.492836 14.145536 10.694636
H 2.801417 13.667207 10.153211
H 4.180477 14.539041 10.084468
O 14.652144 15.210983 13.413054
H 15.240019 16.015094 13.324694
H 14.211296 15.217399 14.310613
O 4.669532 4.047777 15.071536
H 5.434539 3.414654 14.953556
H 3.831479 3.529721 15.242663
O 15.873116 4.412812 7.222236
H 14.922186 4.662963 7.040149
H 16.325359 5.157173 7.713565
O 1.883563 17.408933 4.843102
H 1.968536 18.079366 5.580190
H 2.775622 17.272306 4.412332
O 11.068283 13.550188 16.643477
H 11.249287 13.335049 17.603140
H 10.435553 12.875086 16.264148
O 2.386035 14.671565 5.590238
H 1.997734 15.579509 5.747909
H 1.882205 13.995594 6.128029
O 2.786053 10.882619 8.929521
H 2.712108 9.903969 9.121291
H 2.127216 11.383050 9.491218
O 6.209703 17.983144 14.634801
H 5.298832 17.745371 14.972111
H 6.445767 18.907190 14.935486
O 5.837594 9.874534 1.526097
H 6.351129 10.174318 0.722101
H 6.264408 10.244576 2.351263
O 15.739876 1.581497 14.240977
H 16.248348 2.313802 13.788002
H 15.525812 1.855025 15.178718
O 0.895905 6.733531 5.668494
H 0.659258 5.788861 5.895642
H 1.069175 7.245294 6.509967
O -0.276877 17.890406 3.364438
H 0.478019 17.633835 3.968013
H -0.182461 18.850829 3.102382
O 0.415918 16.099168 1.310128
H 0.323185 15.145848 1.597499
H 0.158578 16.701591 2.065682
O 16.547742 9.209578 5.767805
H 17.184317 8.506946 5.449875
H 16.551799 9.977475 5.127244
O 16.549887 11.178264 3.903826
H 17.453383 11.030758 3.501411
H 16.614145 11.870486 4.622644
O 1.272240 7.460473 15.795398
H 2.213054 7.612943 15.492707
H 0.713234 8.255367 15.559482
O 6.417670 13.829221 7.194241
H 5.982808 12.978180 7.488563
H 6.110429 14.058448 6.270629
O 12.843475 12.360137 14.329867
H 12.888369 11.676543 13.601387
H 13.633663 12.256012 14.933821
O 8.255639 0.038811 5.125165
H 8.795560 0.843951 4.879734
H 7.380480 0.329587 5.511878
O 1.920017 9.436560 12.536012
H 2.558528 8.732226 12.846202
H 2.058634 9.605713 11.560219
O 15.136113 9.726732 2.143209
H 14.269499 9.469944 2.571042
H 15.592544 10.417904 2.703524
O 11.871495 17.768082 16.083474
H 11.668046 18.471927 15.402878
H 11.942982 16.878652 15.632029
O 3.394669 2.154330 18.527720
H 3.773929 3.075004 18.435414
H 2.396495 2.206531 18.558124
O 14.466531 13.742850 9.247206
H 13.927081 14.261004 9.910915
H 14.000632 12.883238 9.037430
O 16.723322 17.447150 5.989683
H 16.715447 17.237946 5.011843
H 16.000251 16.929537 6.447114
O 5.956459 7.306040 2.901658
H 6.039718 8.052384 2.241326
H 5.594646 7.662095 3.763236
O 12.478073 3.767096 9.173969
H 11.525593 3.504996 9.329164
H 13.063964 3.303037 9.838334
O 15.810402 16.604333 2.958885
H 16.780133 16.791137 2.801635
H 15.395046 16.265565 2.114661
O 7.693673 5.907166 14.541288
H 7.424212 5.665975 15.473606
H 7.208830 5.321153 13.892045
O 13.941786 4.669000 16.793050
H 13.851188 5.155147 17.662218
H 14.657077 3.974700 16.872463
O 9.348465 8.781173 15.693571
H 9.793745 7.992616 15.269421
H 9.010406 9.396153 14.981170
O 9.898941 3.906787 12.567720
H 9.158730 4.184362 13.180125
H 9.529401 3.735492 11.654430
O 10.526126 6.914079 4.215687
H 10.658599 6.889460 5.206568
H 9.649486 6.491294 3.986003
O 0.729609 8.278323 7.938228
H 1.372089 8.278092 8.704530
H 0.154000 9.094646 7.986110
O 1.239808 18.335718 15.620401
H 1.334185 18.114513 16.591051
H 1.094068 17.494633 15.099502
O 9.316139 3.549757 2.080092
H 9.471502 4.284729 1.420033
H 9.444758 2.665638 1.630880
O 17.282146 5.519533 18.249082
H 17.123799 6.382670 17.769582
H 17.723341 4.870191 17.629645
O 13.993316 11.628679 5.037724
H 14.829575 11.309994 4.591507
H 13.500407 12.243366 4.421931
O 5.480705 1.824739 8.635483
H 5.556464 2.223483 9.549411
H 4.930155 2.424454 8.054762
O 10.089440 14.692869 4.962374
H 9.770464 15.261318 4.204007
H 9.782015 15.088545 5.827781
O 3.850640 18.184394 8.712135
H 4.267628 17.295346 8.901117
H 4.535074 18.904524 8.825989
O 17.702044 10.516144 8.468617
H 17.111187 10.884120 7.750646
H 17.197793 10.484451 9.331592
O 12.283180 15.350971 15.094457
H 11.850232 14.783713 15.795010
H 11.895578 15.129342 14.199670
O 3.356484 9.282491 2.800031
H 4.116140 9.500895 2.187478
H 3.284349 8.290211 2.900917
O 14.985130 7.390075 7.280171
H 14.966392 7.148713 8.250425
H 15.737056 8.026865 7.109569
O 4.779817 12.289468 17.472317
H 4.375700 12.291832 16.557612
H 4.055539 12.371657 18.156909
O 11.037111 17.560326 2.458254
H 10.253255 17.321985 3.031633
H 11.182413 16.842613 1.777242
O 2.050851 2.595859 15.292358
H 1.691981 3.272572 15.935220
H 1.603538 1.715620 15.450758
O 16.054564 13.357985 1.154729
H 15.603401 14.246860 1.075030
H 15.492674 12.658247 0.713542
O 4.527658 17.581399 3.411071
H 5.100873 18.156988 3.994270
H 5.028113 17.348919 2.577105
O 14.180528 1.031092 4.337382
H 14.202335 0.765957 3.373417
H 14.939787 1.652941 4.529293
O 2.870684 17.590329 11.816387
H 3.510164 16.886075 12.124757
H 2.729723 17.503781 10.830162
O 9.273254 17.068341 9.104470
H 10.191350 16.726703 9.305428
H 8.887244 16.555563 8.337623
O 3.812157 7.172246 4.802024
H 3.806769 6.190879 4.994088
H 2.883766 7.533791 4.887898
O 15.489109 2.400381 17.782742
H 15.421735 2.752583 18.716238
H 14.961943 1.554004 17.706967
O 6.261809 0.917935 1.605862
H 7.251183 0.801533 1.692989
H 5.949467 0.491293 0.757087
O 7.740702 2.623492 17.219507
H 8.542825 2.026568 17.236293
H 6.954457 2.136030 17.599242
O 8.554777 14.770186 11.942642
H 8.280989 14.405929 11.052498
H 9.247583 14.173807 12.348045
O 13.815202 5.918147 14.462588
H 14.001571 5.676399 15.414861
H 14.252983 6.791387 14.248576
O 8.281691 13.959540 9.506897
H 9.145444 13.574048 9.182356
H 7.765891 14.321983 8.730633
O 9.349601 5.004998 8.846913
H 9.014821 5.037482 7.905177
H 9.539591 4.056551 9.100592
O 5.360423 1.071917 5.319874
H 4.625592 1.156358 5.992848
H 5.204312 1.718323 4.573022
O 14.403331 11.572541 0.148874
H 14.837499 10.880382 0.725428
H 13.423815 11.605190 0.347572
O 2.789575 0.207157 1.751044
H 3.187930 0.917955 1.171320
H 3.472772 -0.107026 2.410233
O 9.514934 2.408013 4.539229
H 9.266103 2.928518 3.722432
H 10.497614 2.494556 4.703086
O 10.853492 6.945721 14.409011
H 10.357980 6.165610 14.790974
H 11.821540 6.712715 14.316320
O 12.246497 16.007864 7.706920
H 12.295997 16.667291 6.956783
H 13.066034 16.086560 8.274516
O 4.743792 11.645814 7.110906
H 4.015693 11.463951 7.771812
H 4.370917 11.602996 6.184012
O 12.854658 18.107669 6.056366
H 13.512703 18.657751 5.542180
H 12.164501 18.706769 6.462276
O 10.087951 4.959006 0.097815
H 9.650762 5.857917 0.126530
H 10.792162 4.908084 0.805977
O 0.899560 5.445469 13.779099
H 1.890763 5.461914 13.647774
H 0.636719 6.163764 14.423279
O 5.491063 2.220567 11.465398
H 5.981761 1.420847 11.811320
H 4.603701 2.290043 11.921207
O 8.718359 4.961203 6.471365
H 8.086147 5.593006 6.022886
H 8.776033 4.115156 5.941385
O 10.481082 0.820538 7.538143
H 10.254741 0.885399 6.566256
H 9.976142 0.060895 7.947996
O 14.130282 11.272835 8.118249
H 13.395416 10.599217 8.197053
H 14.209997 11.569349 7.166553
O 14.705524 6.434760 9.855499
H 14.146749 5.605441 9.854886
H 15.557459 6.262293 10.349929
O 18.302230 8.278968 3.844627
H 18.687198 7.725229 4.582985
H 18.032690 7.683927 3.087478
O 5.053777 13.901254 1.987097
H 4.254457 13.718810 2.559636
H 5.300459 13.072273 1.485161
O 16.870971 12.507470 6.476707
H 17.865473 12.483113 6.578558
H 16.484844 13.158598 7.130112
O 13.978890 5.974876 0.604714
H 13.156535 5.655419 1.075541
H 14.781315 5.517431 0.987936
O 5.509152 2.930790 3.359764
H 6.017137 2.403570 2.678595
H 5.039706 3.690979 2.910617
O 17.663650 12.541250 15.691532
H 18.288366 11.901395 16.139098
H 17.807271 13.459875 16.059636
O 10.676815 13.882547 13.431095
H 9.778006 13.725448 13.840316
H 11.357561 13.314625 13.893749
O 15.760664 15.908211 16.557853
H 15.536134 16.454234 15.750732
H 16.712723 15.607358 16.502439
O 11.220657 12.187581 11.215592
H 10.999260 12.962552 11.807541
H 10.836860 12.343102 10.305365
O 16.055421 10.716735 10.535219
H 15.951485 11.496694 11.152358
H 15.351118 10.756362 9.826427
O 8.815214 0.837004 13.971147
H 8.781753 0.603618 12.999339
H 9.733114 1.157110 14.205650
O 9.800675 10.996598 16.987650
H 8.901837 11.165774 17.391963
H 9.778975 10.138945 16.473879
O 7.117052 10.585297 3.870798
H 6.936182 10.194329 4.773255
H 7.909302 10.130998 3.463426
O 4.454415 8.276892 12.461741
H 5.210909 8.417054 13.100545
H 4.005128 7.406470 12.663007
O 12.522196 3.932706 12.885997
H 12.697797 4.733252 13.458964
H 11.550129 3.895419 12.654277
O 0.799646 16.158679 13.726572
H 0.186797 16.708512 13.159033
H 1.721296 16.179829 13.339126
O 3.458607 11.377951 4.775253
H 3.151493 12.075709 4.128094
H 3.443803 10.482009 4.331327
O 5.549342 5.248021 8.422710
H 5.683135 5.855117 7.639426
H 6.333652 4.633230 8.505708
O 12.438707 13.593577 4.054292
H 13.167220 14.264026 4.194894
H 11.623420 13.876351 4.559609
O 13.040127 14.897622 11.436602
H 13.733817 15.142682 12.113904
H 12.292581 14.409271 11.886811
O 15.624050 6.469903 4.737091
H 15.419692 6.925128 5.603698
H 14.770407 6.186832 4.299867
O 3.609974 15.283615 13.051723
H 3.503503 14.941650 12.118061
H 4.565651 15.532852 13.208451
O 3.918626 7.519248 15.426393
H 4.566736 8.017832 14.850747
H 3.981487 6.540967 15.228873
O 16.524891 7.830149 16.685837
H 15.570295 8.128051 16.685213
H 17.011724 8.269703 15.930996
O 10.387390 1.034040 17.561007
H 10.979397 1.836848 17.490103
H 10.913531 0.211726 17.344268
O 5.334943 0.642625 17.562439
H 4.736818 -0.023549 17.116953
H 4.779975 1.362729 17.978925
O 5.535002 9.010339 9.877280
H 5.947316 9.834142 9.488250
H 5.179045 9.214535 10.789201
O 13.521654 8.769630 10.477853
H 12.752939 8.417817 9.943715
H 14.253549 8.088487 10.497191
O 11.889815 5.201418 2.218410
H 11.781558 4.346738 2.726152
H 11.820750 5.974636 2.848778
O 3.089485 1.557579 12.718640
H 2.364682 1.743783 13.381956
H 3.266588 0.573935 12.685789
O 0.337825 13.428852 12.908232
H 0.626421 12.690386 13.517642
H 0.443326 14.306806 13.375208
O 7.448756 6.391276 10.570369
H 8.097961 6.040071 9.895693
H 6.677733 6.819872 10.099382
O 17.372274 9.211853 0.394610
H 16.919960 8.861130 -0.425394
H 16.797580 9.035139 1.193671
O 2.795791 0.693181 6.444244
H 2.708751 1.616758 6.817647
H 3.162827 0.083009 7.146365
O 15.882270 3.620567 4.419929
H 16.473804 2.937841 4.848850
H 15.774287 4.401623 5.034984
O 10.270083 7.477155 9.597301
H 10.267865 7.773712 10.552313
H 10.112828 6.490533 9.554294
O 9.659869 15.824890 16.946610
H 9.518867 16.141590 16.008623
H 10.130134 14.942464 16.933327
O 0.141408 15.092759 16.145547
H 0.368379 15.354477 15.207471
H 0.980280 15.029525 16.686189
O 3.358378 9.202670 17.811594
H 4.169306 9.238726 18.395627
H 3.542821 8.619015 17.020817
O 14.903520 3.073274 1.861630
H 14.044644 2.570203 1.957813
H 15.215081 3.376116 2.762306
O 12.940706 8.447332 0.365000
H 13.190916 7.483081 0.452254
H 13.515896 8.879403 -0.329601
O 10.746766 13.142166 8.772050
H 10.453433 12.401921 8.167076
H 11.254182 13.823023 8.243879
O 2.992340 7.853968 9.495297
H 3.828736 8.224867 9.091717
H 3.180341 6.950484 9.880488
O 3.472598 5.370049 10.429137
H 2.933582 4.536451 10.308404
H 4.245893 5.361699 9.795146
O 4.669428 4.461691 18.267955
H 4.711904 4.838115 19.193428
H 5.195938 5.042716 17.647311
O 11.502101 3.690498 16.640309
H 10.922739 4.184265 17.288795
H 12.222434 4.298682 16.306792
O 11.513911 1.743188 14.617361
H 11.507066 2.342063 15.418174
H 11.929982 2.223699 13.845355
O 18.647876 13.059725 2.004143
H 17.673547 13.111795 1.785119
H 18.887138 12.117238 2.237533
O 1.103947 17.882158 9.290462
H 0.597907 17.258147 8.695036
H 1.996448 18.079526 8.884890
O 5.195428 15.827310 9.075636
H 5.842334 16.432981 9.538965
H 5.620489 15.453688 8.251178
O 9.621587 8.093372 12.308811
H 9.988803 7.676921 13.140508
H 8.721586 7.704981 12.110945
O 0.560564 5.332992 10.960727
H 1.387360 5.630170 10.483135
H 0.784298 5.115960 11.910906
O 2.019438 5.115493 17.504434
H 2.990603 5.334370 17.598946
H 1.556543 5.856557 17.018067
O 14.202399 9.285632 16.740699
H 14.646079 10.171211 16.603234
H 14.251210 8.753584 15.895393
O 8.037398 5.773296 3.588359
H 7.984729 4.938917 3.039689
H 7.170595 6.268107 3.526586
O 16.591744 5.989430 11.703616
H 16.451907 5.436885 12.525285
H 17.441263 5.711164 11.255414
O 2.660395 15.457897 17.382540
H 2.618886 16.382555 17.761071
H 2.821230 14.802531 18.120529
O 6.753415 4.598311 12.455839
H 6.263842 3.789650 12.129670
H 6.798751 5.278241 11.723965
O 8.992903 16.413311 14.324301
H 9.141794 16.068025 13.397689
H 8.564047 17.315542 14.278902
O 4.291492 5.159439 2.310907
H 5.041049 5.792252 2.505103
H 3.418824 5.605201 2.510275
O 1.431742 11.184271 14.433323
H 1.445897 10.662980 15.286584
H 1.684987 10.586087 13.673032
O 12.727672 10.345293 12.418934
H 13.180001 9.628999 11.887595
H 12.117529 10.867388 11.822995
O 12.728746 8.600888 3.185369
H 12.036692 8.122237 3.725697
H 12.507351 8.520275 2.213522
O 17.823927 17.145813 11.359378
H 18.663322 17.373561 10.865873
H 17.618501 16.174790 11.237255
O 12.601504 17.407681 10.785994
H 13.327942 17.608935 10.128890
H 12.711979 16.475148 11.129762
O 1.001309 12.750626 10.067163
H 0.640527 13.103759 10.930374
H 0.386368 13.003941 9.320385
O 7.143148 16.500306 17.349097
H 6.799226 17.402914 17.090220
H 8.108070 16.426437 17.097164
O 9.213628 0.506986 1.205118
H 9.479983 0.807083 0.289150
H 9.948652 -0.042161 1.602832
O 17.398437 1.411118 5.398597
H 18.024307 1.465684 4.620581
H 17.211205 0.451622 5.609099
O 14.089431 15.756925 4.757605
H 14.673608 16.138530 4.041285
H 13.516681 16.481134 5.141634
O 1.536124 17.816381 -0.315247
H 0.931118 17.147915 0.117330
H 1.993612 18.357544 0.390336
O 12.789371 9.386470 6.503004
H 13.583854 8.822974 6.729428
H 13.042326 10.052754 5.801520
O 7.961721 13.102992 14.181061
H 7.378226 13.500795 14.889077
H 7.617525 13.364951 13.279447
O 6.704415 16.060993 1.575511
H 6.877570 16.285076 0.616446
H 6.126512 15.246606 1.628434
O 15.877634 17.678064 13.258791
H 16.439520 17.693036 12.431712
H 15.711971 18.615107 13.566209
O 18.285200 1.677239 9.488861
H 18.686658 0.815284 9.179239
H 17.357940 1.762980 9.124391
O 2.606240 3.466471 7.377687
H 1.765255 3.860975 7.007401
H 2.552650 3.444373 8.376005
O 11.716332 15.987748 0.246992
H 11.556305 15.033566 0.499832
H 11.117577 16.235677 -0.514601
O 8.422245 10.303086 13.480088
H 8.650877 10.242119 12.508486
H 8.482247 11.255956 13.777472
O 9.478519 9.269970 2.790329
H 10.091444 9.858923 2.263587
H 10.013262 8.725425 3.436488
O 14.650778 15.579569 0.436134
H 13.672262 15.724265 0.289272
H 15.087070 15.344825 -0.432511
O 3.546310 13.075644 15.098047
H 3.465465 13.854923 14.476607
H 2.673767 12.588684 15.137274
O 16.450917 12.580214 12.775851
H 17.348502 13.010702 12.870836
H 15.757194 13.157299 13.206807
O 10.227478 11.213790 6.848597
H 9.670527 10.615195 7.424347
H 10.794211 10.658170 6.240238
O 10.082645 2.471814 9.857495
H 10.312761 1.984768 9.014979
H 10.022509 1.820003 10.613488
O 5.900367 14.726813 4.744050
H 6.728447 14.776556 4.185651
H 5.252612 15.426527 4.442699
O 17.518202 3.708785 13.849496
H 18.187484 4.451711 13.838409
H 17.826114 2.973732 13.245438
O 2.411571 13.500053 3.181566
H 1.482115 13.622642 2.833597
H 2.523971 14.026120 4.024549
O 0.804630 10.248666 17.278591
H 0.008673 9.817395 17.703394
H 1.633210 9.758146 17.548488
O 6.604015 2.223194 14.734473
H 7.367786 1.949793 14.149745
H 6.937272 2.387834 15.662823
O 0.668071 2.855568 0.457128
H -0.284006 2.651875 0.228964
H 0.979946 3.637983 -0.081908
O 14.248636 8.487515 14.045696
H 13.501061 9.061301 13.711180
H 15.048230 8.605045 13.456768
O 0.882684 1.763029 3.372314
H 0.833797 2.483263 2.680308
H 1.690989 1.197560 3.208339
O 11.619745 13.530725 1.301416
H 10.965209 12.784378 1.180791
H 12.002742 13.492268 2.224365
O 6.260972 8.284215 14.259598
H 6.763303 9.107225 13.994424
H 6.895635 7.618063 14.651319
O 14.873230 17.591505 9.432968
H 15.170369 18.395843 8.918431
H 15.568932 17.353714 10.110799
O 7.337794 5.500521 17.137796
H 8.013535 6.078532 17.595264
H 7.569677 4.538544 17.282127
O 14.976400 12.116637 16.084325
H 14.892027 12.070880 17.079708
H 15.917370 12.350900 15.839996
O 3.844443 17.379055 15.779507
H 3.065840 18.006568 15.777155
H 3.600264 16.546783 16.277201
O 16.640070 8.758030 12.412326
H 16.719556 7.860156 11.979309
H 16.381315 9.437470 11.725734
O 12.093493 2.941274 4.561600
H 12.825730 2.260389 4.546592
H 12.228383 3.558786 5.336509
O 6.124720 7.053681 6.129653
H 6.412430 7.932251 6.510885
H 5.188981 7.130133 5.785346
O 17.811842 3.231535 16.484673
H 17.808618 3.402999 15.499488
H 16.909164 2.909299 16.769870
O 17.248334 9.511795 14.870662
H 17.492905 10.468798 15.026645
H 17.013096 9.380591 13.907620
O 8.377779 13.671388 0.654015
H 8.449583 13.600671 1.648924
H 8.664954 14.584033 0.363140
O 6.667406 18.170070 9.494546
H 6.501002 18.994822 8.954089
H 7.650585 18.059625 9.640014
O 14.225595 18.521011 17.725885
H 13.363425 18.286262 17.276935
H 14.937397 17.881311 17.435848
O 8.643039 9.558332 8.630075
H 9.215270 8.767207 8.846113
H 8.313264 9.972751 9.478311
O 10.935930 10.199256 0.766449
H 10.367214 10.450591 -0.016745
H 11.594683 9.499834 0.489226
O 18.242308 15.667365 8.119314
H 17.574791 15.717225 7.376391
H 17.790732 15.347498 8.952239
O 2.526583 12.704617 0.315438
H 1.555422 12.466386 0.305872
H 2.835965 12.804552 1.261110
O 1.067189 12.262944 6.646591
H 1.474952 11.968643 7.510950
H 1.582268 11.870740 5.884443
O 6.472331 14.248244 15.971443
H 5.597314 13.940094 16.344792
H 6.734366 15.110633 16.404597
O 18.154033 1.766869 12.180699
H 18.498262 0.837688 12.315346
H 18.160978 1.986801 11.205208
O 4.161529 4.500635 5.447853
H 4.658371 3.756566 5.001188
H 3.778054 4.173966 6.311702
O 16.999646 14.621559 10.246320
H 16.239742 14.345854 9.657651
H 17.087350 13.973499 11.002842
O 3.450452 5.702694 13.278501
H 3.988240 5.163797 13.926863
H 3.512728 5.290015 12.369755
O 8.194837 15.941129 6.691656
H 7.927330 16.822646 6.302597
H 7.511429 15.250805 6.454154
O 14.007429 2.379185 11.084165
H 13.995509 1.419841 11.366154
H 13.642846 2.947885 11.821498
O 10.044819 18.433051 11.350737
H 9.481943 18.163989 10.569216
H 10.896016 17.908238 11.344855
O 8.454418 13.226876 3.114997
H 7.692444 12.736022 3.537442
H 9.206525 13.301899 3.769754
O 6.137585 15.718318 12.841021
H 6.278414 16.254018 13.673603
H 7.009229 15.609858 12.363032
O 13.455307 0.577910 1.753370
H 13.798091 0.279154 0.862727
H 12.679876 0.006002 2.021007
O 12.809433 4.823950 6.683243
H 12.328427 5.685564 6.845277
H 12.869656 4.309820 7.538838
O 15.528650 1.677023 8.891530
H 15.206271 2.090590 9.743020
H 15.535754 2.366944 8.167680
O 0.656392 10.678955 3.627654
H 1.533613 10.550645 3.165031
H 0.186060 9.799455 3.700232
O 8.755517 16.558169 3.286176
H 8.058217 16.485545 2.573085
H 8.640827 17.421372 3.777834
648
Lattice="18.620600 0.000000 0.000000 0.000000 18.620600 0.000000 0.000000 0.000000 18.620600" Properties=species:S:1:pos:R:3 pbc="T T T" step=100
O 2.164493 6.817107 2.333088
H 1.278907 6.491171 2.664002
H 2.263564 6.587537 1.364852
O 2.169948 2.964687 10.305786
H 2.400749 2.278079 10.995206
H 1.203705 2.880759 10.062205
O 18.525679 4.155595 6.549105
H 17.777834 4.428754 7.154176
H 18.402357 3.201377 6.276599
O 5.521221 12.425880 12.659654
H 5.278139 13.246653 12.142699
H 4.950701 12.366751 13.478806
O 15.670513 15.013399 7.054401
H 15.224905 14.473996 7.768878
H 14.979525 15.367209 6.424041
O 17.601745 5.913412 8.531118
H 17.954170 6.655769 7.961291
H 18.004569 5.974190 9.444375
O 11.283005 7.293603 6.831380
H 11.897073 8.039805 6.574275
H 10.979588 7.421931 7.775557
O 17.562155 5.724252 2.244624
H 17.202678 5.868569 1.322698
H 17.125967 4.921143 2.650525
O 7.181143 11.185433 10.650734
H 6.463560 11.322592 11.333567
H 7.382740 12.054927 10.199804
O 9.165383 7.252133 17.720691
H 9.029697 7.907974 18.463296
H 9.251422 7.743234 16.853848
O 6.806435 9.551620 6.543108
H 7.559414 9.427079 7.189260
H 6.076672 10.078206 6.979173
O 7.343273 11.353361 18.345061
H 7.707990 12.215625 18.696460
H 6.538259 11.537178 17.781000
O 3.687258 14.078972 10.666974
H 2.893667 13.605340 10.285025
H 4.156620 14.581687 9.941042
O 15.010353 15.270928 13.525734
H 15.371454 16.144370 13.199077
H 14.212400 15.436003 14.105408
O 4.662927 4.150219 14.835455
H 5.354593 3.429415 14.880622
H 3.758577 3.754928 14.996378
O 15.825915 4.191983 7.649186
H 14.967667 4.662516 7.444223
H 16.437851 4.813073 8.138860
O 1.880722 17.608329 4.595586
H 2.386712 17.982893 5.372553
H 2.385761 17.787538 3.751299
O 11.184550 13.389003 17.056642
H 11.322656 13.169592 18.022450
H 10.773903 12.604467 16.592020
O 2.470629 15.183846 5.605822
H 2.107990 15.998035 5.152405
H 1.804464 14.848829 6.272147
O 2.767360 10.761766 8.949541
H 2.871073 9.838918 9.320479
H 2.177962 11.299154 9.552720
O 6.339861 18.343584 14.893700
H 5.412579 18.099134 15.177236
H 6.452669 19.335993 14.942674
O 5.459818 10.107308 1.786338
H 6.131021 10.301528 1.070960
H 5.869156 10.277879 2.682635
O 15.518327 1.946835 14.279051
H 16.322418 2.477599 14.011231
H 14.780512 2.568871 14.541158
O 0.747339 6.994586 5.592699
H 0.632378 6.012172 5.739822
H 0.797640 7.460291 6.476208
O 18.402844 17.745829 2.763103
H 18.963287 17.480868 3.547768
H 18.422064 18.740357 2.660417
O 0.710951 15.743886 1.216858
H 0.225386 14.883919 1.373966
H 0.282439 16.471332 1.752768
O 16.427103 9.199099 5.981559
H 16.722653 8.556052 5.275060
H 16.344751 10.113934 5.586218
O 16.809345 11.547142 4.136920
H 17.747544 11.482476 3.796916
H 16.809565 11.989651 5.033684
O 1.239176 6.969749 16.050076
H 1.948380 7.390542 15.484422
H 0.753143 7.680465 16.558657
O 6.436447 13.697250 7.114387
H 6.028373 12.785632 7.163651
H 6.214565 14.114578 6.233134
O 12.906632 12.057658 14.430126
H 12.990093 11.266492 13.824248
H 13.709840 12.109207 15.023590
O 8.211232 -0.013682 4.854923
H 8.853944 0.696866 4.568491
H 7.311307 0.393803 5.010133
O 1.728771 9.594411 12.441841
H 2.666226 9.470853 12.116399
H 1.172237 8.813006 12.159571
O 15.204634 10.242311 1.959093
H 14.596170 9.693401 2.532216
H 15.768026 10.830649 2.539135
O 11.896986 18.120506 15.829255
H 11.771627 18.861483 15.169529
H 12.140316 17.280329 15.344597
O 3.621821 2.311125 0.371965
H 4.097147 3.164409 0.157552
H 2.697578 2.516271 0.693976
O 14.123818 13.695393 8.946795
H 13.387843 13.655989 9.622657
H 14.312159 12.774671 8.605039
O 16.137297 17.947209 5.908200
H 15.906573 17.225751 5.255310
H 15.427926 18.651829 5.890781
O 5.668488 7.419780 2.975033
H 5.863194 8.364092 2.709772
H 4.983034 7.412664 3.703115
O 12.749946 3.582910 9.586351
H 11.839699 3.171399 9.540425
H 13.341816 3.019374 10.162646
O 15.331445 16.444391 2.833360
H 16.284397 16.747284 2.845138
H 15.038222 16.303253 1.887791
O 8.108384 5.902260 14.552643
H 8.153347 5.348701 15.384239
H 7.602922 5.404515 13.847833
O 14.015161 4.369306 16.681435
H 14.096061 5.205521 17.223838
H 14.564937 3.646238 17.099668
O 9.185652 8.641473 15.429277
H 9.895927 8.021563 15.095779
H 8.989289 9.329829 14.730988
O 9.692602 4.284255 12.604118
H 8.849026 4.410832 13.125996
H 9.583348 4.680849 11.692648
O 10.692439 7.271348 4.252619
H 10.907314 7.342955 5.226632
H 9.887886 6.690130 4.130633
O 0.897839 7.815917 8.042384
H 1.736068 7.684905 8.571730
H 0.517889 8.719977 8.238125
O 1.517285 18.522246 15.625473
H 1.313636 18.207349 16.552494
H 0.999843 17.976077 14.966722
O 8.844311 3.511589 2.137691
H 9.740378 3.777021 1.781868
H 8.549467 2.662817 1.698768
O 16.969619 5.450313 18.108525
H 16.900661 6.217416 17.470717
H 17.405710 4.675065 17.651563
O 14.029184 11.573878 4.976049
H 14.820791 11.659619 4.371063
H 13.302852 12.185977 4.663358
O 5.706539 2.281189 8.935219
H 5.597866 2.279866 9.929295
H 5.789037 3.223289 8.610193
O 10.179604 14.801359 5.249050
H 9.599910 15.316057 4.617353
H 9.961675 15.062473 6.189436
O 3.699514 17.940001 9.119607
H 4.059436 17.036976 8.885081
H 4.401602 18.632271 8.952774
O 17.819059 10.049255 8.156574
H 17.666803 9.674242 7.242143
H 16.956133 10.398985 8.521332
O 12.811985 15.736000 14.889961
H 12.831710 15.434683 15.843280
H 12.144929 15.191104 14.381902
O 3.149912 9.488781 3.015167
H 3.999681 9.761045 2.563763
H 2.879081 8.580618 2.695963
O 14.861329 7.284497 7.057773
H 14.928649 7.171410 8.049075
H 15.552312 7.938191 6.749184
O 4.885417 12.345956 17.156038
H 4.580165 12.514884 16.218869
H 4.112791 12.029267 17.706271
O 11.443991 17.384325 2.527313
H 10.574484 17.102562 2.932981
H 11.724889 16.712984 1.841457
O 2.248690 2.812344 15.355635
H 1.642332 3.305182 15.979687
H 2.037792 1.835377 15.388155
O 15.916985 13.533275 1.055027
H 15.480139 14.374163 0.735540
H 15.348522 12.748161 0.809168
O 5.313096 17.404362 3.488783
H 5.625178 18.054399 4.181644
H 6.089717 17.115432 2.928979
O 14.177896 1.015476 4.457417
H 14.118261 0.700458 3.510206
H 14.870909 1.733032 4.527034
O 2.717797 17.398852 11.525999
H 3.494561 16.840239 11.816840
H 2.904580 17.784927 10.622640
O 9.558867 17.051044 9.127786
H 10.457652 16.724167 8.835661
H 8.892676 16.889674 8.399673
O 3.605189 7.221364 4.944184
H 3.701222 6.331048 5.389285
H 2.638422 7.474858 4.910974
O 15.192670 2.130841 17.743720
H 15.197718 2.496340 18.674519
H 14.798564 1.211790 17.748649
O 6.752997 1.141352 1.503380
H 7.697790 0.956200 1.233035
H 6.130363 0.632952 0.908521
O 7.673101 2.172657 17.487213
H 8.507759 1.631384 17.385385
H 6.907194 1.566874 17.702651
O 8.243325 15.081666 11.848233
H 8.065739 14.439059 11.102901
H 8.861232 15.800101 11.528793
O 13.823206 5.589040 14.197470
H 13.784635 5.240540 15.133985
H 14.105655 6.548238 14.210136
O 7.974371 13.466525 9.393498
H 8.897973 13.716753 9.103077
H 7.344988 13.562565 8.622360
O 9.248479 5.186826 9.245678
H 8.835630 5.108948 8.338214
H 9.367644 4.274352 9.637074
O 5.697703 0.749104 5.452302
H 4.893501 0.533157 6.006040
H 5.577050 1.644875 5.024475
O 14.026904 11.745558 -0.112384
H 14.295678 10.939625 0.415094
H 13.030217 11.777898 -0.187014
O 3.099770 0.113224 2.224959
H 3.429866 0.983540 1.859463
H 3.859297 -0.379480 2.649647
O 9.876225 2.332945 4.654172
H 9.294667 2.739739 3.949680
H 10.782044 2.755501 4.623541
O 10.843496 6.534418 14.298291
H 9.924012 6.170240 14.150221
H 11.499217 5.780189 14.332478
O 11.807444 16.268296 8.018126
H 12.206287 16.875580 7.331008
H 12.013501 16.618118 8.931999
O 4.576654 11.610222 7.170595
H 3.907901 11.233478 7.811558
H 4.176943 11.646162 6.254658
O 12.487014 -0.217096 6.398111
H 12.812340 0.505308 5.787951
H 11.582155 0.024852 6.748384
O 10.439352 4.868873 18.433434
H 9.902562 5.691490 18.245924
H 11.103267 5.061616 19.155975
O 1.059609 5.703680 13.330457
H 2.026456 5.925329 13.203653
H 0.730537 6.120172 14.177951
O 5.676259 1.988004 11.531758
H 6.095807 2.004759 12.439336
H 4.901493 1.355761 11.534327
O 8.573881 4.956248 6.710963
H 8.001767 5.729245 6.436808
H 8.832330 4.429204 5.901378
O 9.983426 0.671028 7.060244
H 9.825721 0.801489 6.081413
H 9.349816 -0.018574 7.410939
O 14.191976 11.321621 7.808522
H 13.664349 10.485707 7.657333
H 14.517336 11.673723 6.930932
O 14.540469 6.428385 9.797877
H 13.762316 5.803922 9.865145
H 15.364822 5.970806 10.131138
O 17.878253 8.261228 3.790127
H 18.559321 7.892035 4.422458
H 17.691597 7.590405 3.072384
O 5.208492 13.763826 1.976658
H 4.252566 13.712986 2.265831
H 5.651708 12.881330 2.134012
O 16.707964 12.626807 6.492358
H 17.667460 12.579733 6.770118
H 16.421319 13.583658 6.444706
O 14.158269 5.874309 0.472369
H 13.836168 5.197510 1.134331
H 15.125516 5.713982 0.275574
O 5.295960 2.834533 3.647302
H 5.610937 2.134166 3.006774
H 5.021081 3.651082 3.139671
O 17.675761 12.200377 15.991877
H 18.374183 11.594703 16.373145
H 17.908188 13.150272 16.200871
O 11.116431 13.888723 13.633012
H 10.214937 13.686737 14.015778
H 11.776615 13.212696 13.960343
O 16.178061 15.865997 16.620225
H 16.131112 15.880548 15.621434
H 16.960169 15.313875 16.909134
O 10.815879 11.973097 11.578973
H 10.671692 12.843601 12.049540
H 10.892046 12.134689 10.595059
O 15.771802 10.386663 10.427820
H 15.923500 11.241500 10.924046
H 14.904696 10.438227 9.932372
O 8.821256 1.436628 13.346984
H 8.700628 0.557134 12.886616
H 9.780846 1.548936 13.605006
O 9.617439 10.674920 17.322486
H 8.689026 10.750239 17.686324
H 9.604579 10.124910 16.487427
O 6.993885 10.748626 4.051916
H 6.769581 10.446097 4.978287
H 7.838006 10.304558 3.751478
O 4.490175 8.374506 12.312390
H 5.113645 8.527579 13.079106
H 4.169857 7.427312 12.327240
O 12.479062 3.707100 12.929833
H 13.140872 4.437072 13.100561
H 11.572151 4.105068 12.791506
O 0.723014 16.915496 13.594260
H -0.075254 17.180185 13.053236
H 1.542614 16.960591 13.023100
O 3.701106 11.590427 4.717661
H 3.775844 12.407889 4.146549
H 3.384270 10.822616 4.160813
O 5.697372 5.125588 8.490704
H 5.451958 4.731250 7.605114
H 6.418286 5.806916 8.363916
O 12.275806 13.624947 4.047388
H 13.010027 14.168431 4.454261
H 11.394595 13.934969 4.404254
O 13.157500 14.417769 11.607457
H 13.853857 14.602310 12.301021
H 12.365952 13.983303 12.037213
O 14.957288 5.585221 4.786908
H 14.869178 6.235153 5.541776
H 14.532042 5.967544 3.966546
O 3.044889 15.139941 13.196198
H 3.103510 14.651608 12.325512
H 3.947150 15.495261 13.440476
O 4.042128 7.644583 15.152451
H 4.839073 8.208268 14.935338
H 4.187040 6.716390 14.809730
O 16.690850 7.784768 16.735787
H 15.722594 8.034174 16.719129
H 17.188445 8.335358 16.065526
O 10.332274 1.205772 17.327243
H 11.031598 1.911312 17.212525
H 10.495634 0.465407 16.675191
O 5.308919 0.552309 17.643457
H 4.715758 -0.031151 17.088719
H 4.818608 1.388537 17.889054
O 5.507670 9.081376 9.805929
H 5.828632 10.018828 9.671149
H 5.402980 8.902314 10.784181
O 13.338615 8.776475 10.282341
H 12.472487 8.513229 9.857460
H 13.963414 7.995708 10.276906
O 11.909450 4.932770 2.518221
H 12.241138 4.260216 3.179775
H 11.491549 5.700330 3.004236
O 3.004024 1.473545 12.478602
H 2.389688 1.867226 13.162419
H 2.962398 0.475647 12.528276
O 0.634412 13.411219 12.608976
H 0.654017 12.595227 13.186707
H 1.170565 14.137340 13.039427
O 7.582892 6.897953 10.585366
H 8.170823 6.415498 9.936079
H 7.204858 7.714724 10.149504
O 17.459229 9.434836 0.516987
H 17.250481 8.739889 -0.171108
H 16.606898 9.794922 0.896288
O 3.196113 0.797961 6.690804
H 2.955564 1.760059 6.819273
H 3.125034 0.317056 7.564691
O 15.836050 3.229364 4.409984
H 16.569098 2.912764 5.011984
H 15.396290 4.031619 4.813715
O 10.778396 7.519640 9.729539
H 10.356555 7.700103 10.618068
H 10.633004 6.562299 9.479821
O 9.600117 15.764892 17.265831
H 9.620256 16.146737 16.341825
H 9.821183 14.790342 17.228643
O 0.384108 15.457768 15.884523
H 0.674104 15.879049 15.025207
H 1.188226 15.246378 16.440139
O 2.938459 9.168038 17.230109
H 3.325623 9.055745 18.145256
H 3.412421 8.562266 16.591045
O 14.661818 3.106815 1.790098
H 14.016760 2.344279 1.740707
H 15.022040 3.178959 2.720171
O 13.016150 8.342266 18.776680
H 13.354728 7.402733 18.828084
H 13.376018 8.781686 17.953633
O 10.674641 13.651117 8.427737
H 10.898673 12.889314 7.819901
H 11.082200 14.492222 8.072153
O 3.082496 7.794239 9.564389
H 4.008698 8.169852 9.531741
H 3.113628 6.861255 9.922956
O 3.798095 5.280757 10.251948
H 3.358028 4.391366 10.128147
H 4.662459 5.297796 9.749371
O 4.610294 4.678066 18.305739
H 4.772891 4.799513 19.284929
H 5.463634 4.824762 17.805448
O 11.492261 3.684438 16.141945
H 10.897851 4.009855 16.877323
H 12.433758 3.967877 16.324281
O 11.423359 1.522982 14.210245
H 11.389844 2.293132 14.847227
H 11.829031 1.822172 13.346581
O 18.438657 13.421890 2.103375
H 17.484395 13.413447 1.804522
H 18.768752 12.482039 2.191216
O 0.599909 17.791436 8.918774
H 0.070237 17.029288 8.546513
H 1.542544 17.496911 9.075916
O 5.307980 15.649962 8.910439
H 6.020426 16.348306 8.841617
H 5.600824 14.826091 8.425178
O 9.637167 8.008584 12.095946
H 10.000672 7.568820 12.917208
H 8.772112 7.576238 11.841471
O 0.538253 5.543961 10.778383
H 0.955337 4.738819 10.356734
H 0.677570 5.511797 11.768108
O 2.134547 5.347814 17.984469
H 3.081244 5.034513 18.059352
H 2.055949 5.992438 17.224021
O 14.434404 9.152255 16.595080
H 14.599959 10.137771 16.631814
H 14.015014 8.917179 15.718239
O 8.499948 5.672869 3.588029
H 8.409303 4.921462 2.934446
H 7.749311 6.320559 3.457482
O 16.480925 5.797602 11.839232
H 15.999408 5.209262 12.488846
H 17.414905 5.462566 11.715003
O 2.811198 15.118860 17.524716
H 2.334363 15.816101 18.059957
H 3.117985 14.385188 18.131022
O 6.864150 4.774534 12.204195
H 6.522600 3.900111 11.859625
H 6.761292 5.474415 11.497381
O 8.722476 17.073216 14.826900
H 8.811258 16.286878 14.215516
H 7.817832 17.483784 14.712655
O 4.537159 5.089639 2.321338
H 5.197531 5.821309 2.490360
H 3.611438 5.432942 2.480035
O 1.449486 11.336519 14.294611
H 1.020829 10.852135 15.057254
H 1.528826 10.720492 13.510892
O 12.504892 10.039801 12.610625
H 12.842762 9.788600 11.703574
H 11.726003 10.659822 12.516253
O 13.092858 8.581355 3.277544
H 12.493945 8.018720 3.847408
H 12.677274 8.703214 2.376189
O 17.914224 17.318836 11.328180
H 18.541093 17.389791 10.552293
H 17.277844 16.562927 11.174487
O 12.476544 17.138716 10.626880
H 13.200183 17.750747 10.307874
H 12.876314 16.263641 10.899695
O 1.048932 12.773982 10.123883
H 0.812694 13.091616 11.042197
H 0.323995 12.176527 9.781081
O 7.098329 16.634516 17.824330
H 6.951915 17.526802 17.397260
H 8.077414 16.432289 17.846614
O 9.480150 0.651765 1.178743
H 9.694984 0.904581 0.235382
H 10.118359 -0.053020 1.488530
O 17.809013 1.760664 5.640897
H 18.326172 1.923120 4.800567
H 17.649009 0.779529 5.749395
O 13.987655 15.721192 5.063241
H 14.493093 15.960341 4.234181
H 13.360707 16.464232 5.297394
O 1.530216 17.745013 -0.359238
H 1.107563 17.088585 0.265635
H 2.140714 18.348252 0.153982
O 13.056374 9.342552 6.327584
H 13.733762 8.618297 6.456435
H 13.391466 9.995297 5.648145
O 8.432298 13.619980 14.408362
H 7.679283 13.882491 15.011733
H 8.236394 13.928094 13.477402
O 6.685985 16.008309 1.738746
H 6.695900 16.367760 0.805635
H 5.917727 15.376979 1.844589
O 15.480682 18.006238 12.960838
H 16.065803 18.231503 12.181807
H 15.495020 18.760282 13.617504
O 18.554160 1.834065 9.272775
H 18.911519 0.928494 9.044222
H 17.794110 2.056327 8.662100
O 2.538642 3.458932 7.345942
H 1.603414 3.697534 7.084374
H 2.624941 3.491811 8.341668
O 11.840779 15.819563 0.308094
H 11.684509 14.896179 0.658723
H 11.121410 16.053983 -0.345784
O 7.950949 10.623709 13.862099
H 7.986636 10.541034 12.866162
H 8.146829 11.568334 14.125376
O 9.438374 9.378513 2.956355
H 10.185435 9.665989 2.356974
H 9.730234 8.590333 3.498194
O 14.683994 15.680319 18.886608
H 13.699804 15.781121 18.740976
H 15.165587 15.827656 18.022687
O 3.412364 13.021331 14.931666
H 3.223620 13.898770 14.490670
H 2.605157 12.434744 14.865847
O 16.142242 12.466247 12.207077
H 17.054025 12.780765 12.471142
H 15.467631 12.816727 12.856742
O 10.346135 10.945138 6.967638
H 9.759819 10.384256 7.552142
H 11.206015 10.463676 6.797929
O 10.183034 2.329694 9.765151
H 10.226768 1.827710 8.901381
H 9.988445 1.692921 10.511244
O 5.997461 14.422204 4.571195
H 6.235917 14.433601 3.600108
H 5.077089 14.793861 4.692791
O 17.985869 3.403976 13.778093
H 18.719261 4.039869 13.537726
H 18.026133 2.606044 13.176692
O 2.550315 13.816733 3.308523
H 1.626257 14.124649 3.082017
H 2.765881 14.074088 4.250489
O 0.610646 10.443742 16.995067
H 0.095597 10.221391 17.822887
H 1.514850 10.019113 17.040947
O 6.772161 2.427383 14.602638
H 7.624926 2.179781 14.142763
H 6.974672 2.760959 15.523353
O 0.634184 3.071584 0.404315
H 0.316202 2.549609 -0.387158
H 1.006061 3.947908 0.098106
O 14.132457 8.269344 14.082518
H 13.452663 8.719302 13.503366
H 15.049985 8.541193 13.792273
O 0.316000 1.928052 3.034449
H -0.053663 2.356181 2.209795
H 1.215147 1.539169 2.833686
O 11.305760 13.360940 1.127436
H 10.604811 12.652537 1.044755
H 11.824422 13.219829 1.970691
O 6.430051 8.490261 14.396386
H 7.007513 9.306530 14.411934
H 7.006952 7.674641 14.352234
O 15.243755 17.805917 9.318012
H 15.435089 18.685695 8.882831
H 15.524102 17.064507 8.708326
O 7.167558 4.612983 17.220427
H 7.603804 5.394077 17.667173
H 7.581781 3.765318 17.551913
O 14.999990 12.044025 15.942159
H 14.786215 12.054154 16.918990
H 15.992258 12.046531 15.818068
O 3.976393 17.290100 16.172155
H 3.171741 17.838263 15.944001
H 3.684798 16.406773 16.539178
O 16.759899 8.744279 12.294412
H 16.646884 7.809170 11.958558
H 16.325070 9.381726 11.658342
O 12.476413 3.267713 4.741212
H 13.091888 2.480889 4.695389
H 12.698571 3.818246 5.545923
O 6.523444 6.546746 6.461063
H 6.361856 7.525637 6.586212
H 5.757767 6.143968 5.959558
O 17.839700 2.909561 16.599964
H 17.987932 2.926594 15.611158
H 16.933966 2.533145 16.794788
O 17.156679 9.591973 14.918955
H 17.238468 10.562981 15.143573
H 17.175393 9.476877 13.925777
O 8.307651 13.661095 1.084721
H 8.515906 13.302165 1.994556
H 7.822751 14.531235 1.172637
O 6.312331 18.236532 8.887865
H 6.153976 19.207639 8.709328
H 7.289722 18.038876 8.812773
O 13.907485 18.344674 17.673882
H 13.263084 18.602988 16.954145
H 14.571809 17.692774 17.308230
O 8.480933 9.481734 8.530480
H 9.073662 8.825242 8.997052
H 7.964771 10.005211 9.208380
O 11.153479 10.401506 0.727178
H 10.463072 10.469293 0.006939
H 11.819800 9.696310 0.484866
O 18.127370 15.624334 8.127829
H 17.421576 15.664790 7.420569
H 17.757353 15.178429 8.942848
O 2.648961 12.731277 0.555782
H 2.878413 12.229553 1.389823
H 1.899093 13.365531 0.743981
O 0.722702 11.849815 6.423734
H 0.923229 11.461561 7.323205
H 1.377049 11.496889 5.754949
O 6.135401 14.569344 15.814915
H 5.683812 13.754852 16.179155
H 6.241907 15.245527 16.543908
O 18.320073 1.453530 11.957111
H 18.205419 0.464877 12.054167
H 18.330183 1.694218 10.986561
O 4.431854 4.728819 5.596916
H 4.667978 4.138958 4.824706
H 3.678051 4.319346 6.110836
O 16.564345 14.292801 10.197655
H 15.643695 14.232941 9.811882
H 16.615908 13.733964 11.025328
O 3.701008 5.839232 12.948006
H 4.192192 5.281917 13.617438
H 3.840375 5.460910 12.032884
O 8.150985 16.722008 6.741641
H 8.068591 17.452166 6.063348
H 7.548333 15.964462 6.490775
O 14.113814 1.841049 11.233798
H 14.774197 1.368890 11.817717
H 13.387815 2.231592 11.799839
O 9.932633 18.341794 11.266158
H 9.773176 17.822551 10.426540
H 10.899385 18.284026 11.515265
O 8.720272 12.916991 3.494985
H 8.172737 12.181774 3.894563
H 9.399222 13.226532 4.160725
O 5.562847 16.405349 12.854301
H 5.869853 16.608329 13.784111
H 6.316021 16.001023 12.335409
O 13.272371 0.787348 1.819566
H 13.486346 0.445848 0.904366
H 12.712900 0.114754 2.303931
O 12.751685 4.912323 7.016261
H 12.326463 5.815400 6.955944
H 12.539911 4.502790 7.903636
O 15.497993 1.733266 8.522933
H 14.938011 1.910316 9.332298
H 15.657199 2.590757 8.033686
O 0.650151 10.540828 3.553224
H 1.600192 10.234414 3.493801
H 0.042701 9.746498 3.546584
O 8.880195 16.620025 3.340717
H 8.252869 16.334552 2.616172
H 8.482856 17.388757 3.841889
648
Lattice="18.620600 0.000000 0.000000 0.000000 18.620600 0.000000 0.000000 0.000000 18.620600" Properties=species:S:1:pos:R:3 pbc="T T T" step=150
O 2.033818 6.932797 2.075060
H 1.141256 6.876453 2.522450
H 1.945682 6.653203 1.118995
O 2.013994 3.110944 10.047972
H 2.072221 2.700235 10.957878
H 1.177525 2.801656 9.595578
O 18.428435 4.276560 6.398372
H 17.736409 4.633793 7.025655
H 18.213239 3.326974 6.170387
O 5.454502 12.577694 12.788329
H 5.034048 13.202008 12.129959
H 5.018902 12.692003 13.681182
O 15.311657 15.598561 7.142731
H 14.847597 14.978554 7.775376
H 14.745568 15.729371 6.328831
O 17.341073 5.638358 8.316076
H 17.931271 6.389891 8.021347
H 17.554964 5.398212 9.262956
O 11.211498 7.059447 7.020121
H 12.060922 7.586957 7.034692
H 10.718355 7.197947 7.878974
O 17.654466 5.719880 2.134649
H 17.238227 5.654545 1.227744
H 18.212858 4.907855 2.304394
O 6.748980 11.402081 10.750269
H 6.342418 11.790823 11.577062
H 7.252590 12.113588 10.260234
O 9.331133 7.065049 17.779253
H 9.575975 7.686898 18.523132
H 9.230781 7.584021 16.930373
O 6.671688 9.677513 6.545960
H 7.201037 9.362682 7.333786
H 5.889673 10.214227 6.862805
O 7.024076 11.540041 18.202037
H 7.493092 12.150595 18.840196
H 6.182188 11.974882 17.882449
O 3.855753 14.000399 10.375975
H 3.248815 13.343234 9.929029
H 4.397189 14.478084 9.684119
O 15.157451 15.525438 13.575323
H 15.605242 16.313488 13.152878
H 14.304758 15.818744 14.007627
O 4.752091 4.172367 14.532918
H 5.623458 3.765833 14.807599
H 4.006174 3.545487 14.757929
O 15.341022 3.984840 7.284510
H 14.382825 4.231391 7.139347
H 15.875478 4.812081 7.457802
O 1.894071 -0.152833 4.607871
H 2.034311 0.425215 5.411732
H 2.676033 -0.061657 3.991248
O 10.772311 13.298039 17.218461
H 10.939763 13.225628 18.201678
H 10.291720 12.480533 16.901101
O 2.275556 15.635075 5.516247
H 1.747471 16.482783 5.466079
H 3.051900 15.762048 6.133634
O 2.755201 10.828888 8.819284
H 2.571987 9.869033 9.031674
H 2.010902 11.396189 9.171688
O 6.335393 17.851248 15.362787
H 5.473505 17.354449 15.464472
H 6.145062 18.820685 15.207974
O 5.599506 10.119588 1.365440
H 6.039423 10.596719 0.604639
H 5.963096 10.465181 2.230523
O 15.354882 2.353593 13.769025
H 16.179738 2.910398 13.671150
H 14.667562 2.864015 14.285805
O 0.892681 6.632264 5.620739
H 0.685607 5.659675 5.726533
H 0.885145 7.074151 6.517778
O 18.317598 17.639991 2.604530
H 19.012276 17.504289 3.310934
H 18.056520 18.604851 2.574781
O 1.098628 15.581125 1.082998
H 0.875219 14.609095 1.155430
H 0.543004 16.100134 1.732546
O 16.498132 9.278760 6.028075
H 16.486858 8.459727 5.454438
H 16.199377 10.066815 5.489823
O 16.737976 11.706986 4.172727
H 17.664578 11.373149 3.999633
H 16.725558 12.228634 5.025797
O 1.142080 6.983021 15.958173
H 2.142018 6.975785 15.949694
H 0.813564 7.902413 15.741849
O 6.274118 13.677287 7.113556
H 5.710887 12.852111 7.156643
H 6.379813 13.959282 6.159980
O 12.987389 11.939099 14.089393
H 12.708867 11.024156 13.797323
H 13.645212 11.863919 14.838804
O 7.902826 0.205781 4.487740
H 8.637787 0.881909 4.435950
H 7.080059 0.635649 4.859585
O 1.805677 10.012495 12.309334
H 2.735248 9.644150 12.294551
H 1.657820 10.576847 11.497149
O 15.236559 10.656157 2.218242
H 14.733219 9.933817 2.692450
H 15.987847 10.973848 2.796723
O 12.328465 18.290835 15.628354
H 12.084029 18.990409 14.956902
H 12.508400 17.426502 15.158724
O 3.471735 2.235402 0.227425
H 3.858036 3.120843 -0.030966
H 2.518067 2.355526 0.503263
O 14.121025 14.011444 9.273033
H 13.657896 14.039874 10.158868
H 14.189257 13.063212 8.962868
O 16.422867 18.292246 5.708241
H 16.197443 18.068171 6.656384
H 15.822756 17.780836 5.093158
O 6.160998 7.364505 3.171527
H 6.142619 8.272797 2.753593
H 5.637836 7.379034 4.023636
O 12.694794 3.701472 9.658513
H 11.747708 3.380558 9.665061
H 13.245371 3.127611 10.264771
O 15.343029 16.559002 3.022347
H 16.309539 16.766854 2.871827
H 14.956588 16.152718 2.194339
O 7.879170 5.816641 14.790566
H 7.659719 5.233675 15.572865
H 7.394283 5.484974 13.981319
O 14.159579 4.146804 16.258818
H 13.913044 4.785874 16.987385
H 14.611604 3.347714 16.655214
O 9.823956 8.927479 15.523922
H 9.940627 8.074470 15.015234
H 9.393449 9.610922 14.934371
O 9.932464 4.490054 11.833540
H 9.364503 3.683968 11.999811
H 9.515712 5.287278 12.270291
O 10.557182 7.005546 4.370499
H 10.551852 7.267394 5.335593
H 9.677955 6.593027 4.132198
O 0.602839 7.744839 8.187528
H 1.490037 7.779435 8.647619
H 0.156659 8.637132 8.256355
O 1.771948 18.689983 15.451822
H 1.325810 18.597150 16.341958
H 1.371084 18.037784 14.808437
O 8.477162 3.548226 1.925229
H 9.065449 2.855366 1.508260
H 7.519878 3.332078 1.733168
O 16.714312 5.556141 18.406203
H 16.898249 6.369142 17.853757
H 16.883659 4.736236 17.859324
O 13.856815 11.481098 4.648387
H 14.747377 11.527018 4.195850
H 13.284145 12.238542 4.334815
O 6.271399 2.212722 9.429067
H 6.058108 1.966084 10.374412
H 6.330485 3.207793 9.349426
O 10.024269 14.821464 5.202987
H 9.810705 15.628568 4.652556
H 10.496209 15.103118 6.038418
O 3.501611 17.777414 8.909125
H 3.758050 16.835559 8.691988
H 4.321676 18.301700 9.138510
O 17.740101 10.043769 8.371136
H 17.227439 9.752159 7.563584
H 17.106798 10.202628 9.128560
O 13.006392 15.358074 15.445262
H 12.715119 15.344112 16.401800
H 12.306117 14.925662 14.877253
O 3.101578 9.363842 2.768097
H 3.983947 9.430050 2.302220
H 2.710120 8.456772 2.613223
O 14.359563 7.533491 7.260037
H 14.204278 7.039347 8.115436
H 15.143688 8.144984 7.365970
O 4.774586 12.798689 17.382753
H 4.528344 12.544782 16.447394
H 3.943424 12.912625 17.926984
O 10.953791 17.508953 2.253522
H 10.162319 17.054858 2.662632
H 11.473570 16.848650 1.711461
O 2.411773 2.753845 15.048617
H 1.585622 3.270503 15.273423
H 2.299464 1.803230 15.337958
O 16.501476 13.203563 0.541535
H 16.130534 14.131629 0.574621
H 15.807631 12.579925 0.181461
O 5.263181 17.709956 3.753244
H 5.687020 18.290341 4.448594
H 5.975202 17.232389 3.238505
O 13.882848 1.027960 4.458650
H 13.529123 0.527874 3.668212
H 14.597289 1.660823 4.160223
O 2.725697 17.281401 11.624656
H 3.649903 17.356308 11.999131
H 2.762907 17.354830 10.628050
O 9.193229 16.850142 8.977216
H 10.057002 16.406205 8.738853
H 8.586526 16.847304 8.182292
O 4.018971 6.744592 5.343971
H 4.050824 5.797779 5.664173
H 3.106082 7.120076 5.504118
O 15.577160 2.031559 17.671191
H 15.300189 2.635071 18.418895
H 14.970003 1.237537 17.641397
O 6.787982 1.426497 1.925212
H 7.745392 1.190008 2.090863
H 6.470879 0.969898 1.093971
O 7.607412 1.902208 17.306702
H 8.411110 1.524768 17.766711
H 6.845838 1.258856 17.384823
O 8.027750 15.597238 11.430101
H 8.013897 14.711108 10.966871
H 8.310077 16.306588 10.784258
O 14.136170 5.631420 13.955924
H 14.173644 5.235584 14.873481
H 14.099517 6.628409 14.024262
O 8.138209 13.593181 9.393608
H 9.039226 13.897967 9.084942
H 7.569621 13.376724 8.599974
O 9.196914 5.239130 9.454195
H 9.190540 5.050734 8.472122
H 9.592809 4.460148 9.940459
O 5.711314 1.266882 5.434777
H 4.828626 1.063107 5.858260
H 5.568946 1.835415 4.624529
O 13.941319 11.638830 0.118711
H 14.402123 11.390020 0.970622
H 13.033096 11.220923 0.096666
O 3.456453 0.407546 2.340202
H 3.705000 1.134398 1.699958
H 4.278939 0.072750 2.800015
O 9.807312 2.314865 4.217131
H 9.402154 3.060572 3.688200
H 10.737339 2.564490 4.486831
O 10.227708 6.579572 14.074039
H 9.287777 6.457819 14.392953
H 10.780016 5.795561 14.357383
O 11.697648 16.331292 8.153801
H 12.208113 16.956621 7.563556
H 11.997248 16.447533 9.100759
O 4.607743 11.408127 7.198767
H 3.996647 11.054069 7.906726
H 4.074956 11.644121 6.386090
O 12.701725 -0.293328 6.582764
H 13.054150 0.509661 6.102134
H 11.877379 -0.042782 7.090386
O 11.027117 4.747710 -0.067784
H 10.638227 5.588669 -0.444018
H 11.188956 4.864583 0.912087
O 1.075998 5.460388 13.407939
H 2.038457 5.504493 13.140119
H 0.921829 6.055719 14.196490
O 5.792359 2.126784 12.132441
H 6.361303 1.807293 12.890219
H 4.838510 1.881157 12.305179
O 8.876410 4.891254 6.744091
H 8.434478 5.706479 6.369788
H 9.683019 4.668308 6.196664
O 10.120526 0.850219 7.077836
H 10.168778 1.417630 6.255816
H 9.249366 0.359467 7.093432
O 14.766906 11.547426 7.835078
H 14.172710 11.040783 7.210382
H 15.420886 12.089268 7.307142
O 14.604618 6.473083 9.774364
H 14.084784 5.623635 9.864981
H 15.259709 6.544812 10.526501
O 17.885076 7.996785 3.671750
H 18.578422 7.575484 4.256367
H 17.435366 7.290020 3.125634
O 5.007274 14.045697 1.910849
H 4.226696 13.762954 2.468301
H 4.941331 13.623807 1.006603
O 16.694945 12.893384 6.604086
H 17.608259 12.512448 6.748118
H 16.756452 13.888956 6.532995
O 13.926069 5.294248 0.178296
H 13.807115 4.465942 0.725798
H 14.886750 5.571254 0.197309
O 5.275472 2.948612 3.561879
H 5.948839 2.469486 2.998838
H 5.090479 3.848474 3.166876
O 17.352955 12.778326 16.304456
H 17.906496 12.181353 16.885158
H 17.873322 13.602786 16.082007
O 11.238258 13.969706 13.829149
H 10.254472 13.931252 14.004326
H 11.666498 13.123262 14.145601
O 16.281057 15.930651 16.583991
H 15.919163 15.559379 15.728895
H 17.231545 15.641237 16.697182
O 10.459269 11.336227 11.612226
H 11.135814 11.973146 11.981849
H 10.185523 11.634353 10.697796
O 15.756249 10.170464 10.529538
H 15.790155 10.958809 11.143836
H 14.822337 9.814617 10.495159
O 8.607427 1.708430 12.695441
H 8.570917 1.281391 11.791946
H 9.508792 1.555047 13.100430
O 9.761565 10.789088 17.442745
H 8.833013 11.160292 17.443324
H 9.836416 10.079496 16.742119
O 7.199534 10.426527 3.836064
H 7.094438 10.366431 4.828709
H 8.103900 10.088499 3.575566
O 4.173233 8.607996 12.434169
H 4.881152 9.088106 12.952190
H 3.964959 7.738210 12.881489
O 12.519406 3.871792 12.443645
H 12.962141 4.597314 12.970526
H 11.746519 4.252617 11.936084
O 0.675829 16.709760 13.583281
H 0.047934 16.821085 12.812986
H 1.601941 16.555880 13.238842
O 3.087287 11.486980 4.952394
H 2.763533 12.318144 4.500343
H 3.277730 10.786221 4.264886
O 5.907345 4.807779 8.527518
H 5.417112 4.438311 7.738111
H 6.869328 4.941863 8.289589
O 12.466217 13.657275 4.046995
H 13.026626 14.477706 4.160282
H 11.538716 13.839481 4.373405
O 13.124763 14.406952 11.909053
H 13.884183 14.642758 12.515417
H 12.307915 14.220446 12.454923
O 14.148146 5.510296 4.456763
H 14.099768 5.910919 5.371728
H 14.105750 6.237611 3.771771
O 3.274250 14.813991 13.014206
H 3.291372 14.687329 12.022407
H 4.004506 15.442213 13.282652
O 3.993514 7.293587 15.399192
H 4.665204 7.923892 15.009900
H 4.319040 6.353768 15.295396
O 16.521395 7.894191 16.932168
H 15.571507 8.202464 16.880398
H 17.087392 8.455599 16.328455
O 10.448016 1.069209 17.184802
H 10.662525 1.980405 16.833080
H 10.999280 0.387799 16.703359
O 5.339154 0.372716 17.845414
H 4.830603 -0.403633 17.473045
H 4.714193 1.138362 17.997762
O 5.815560 8.862391 10.135398
H 6.022002 9.838943 10.196465
H 5.294726 8.580785 10.941270
O 13.237317 8.613779 10.199704
H 12.328099 8.449887 9.817002
H 13.846204 7.862212 9.945925
O 11.573252 5.058913 2.880570
H 12.012041 4.413059 3.505339
H 11.270390 5.863442 3.391459
O 2.942906 1.427582 12.430270
H 2.434597 1.858982 13.175600
H 2.595826 0.501478 12.282395
O 0.763497 13.365741 13.053540
H 0.833499 12.577192 13.664515
H 1.635509 13.855027 13.039580
O 7.597035 6.917269 10.702545
H 8.090491 6.136660 10.318943
H 6.651423 6.906264 10.377435
O 17.207720 9.755391 0.205146
H 16.866631 8.954710 -0.287367
H 16.458705 10.175726 0.717293
O 3.357320 1.005705 6.715249
H 2.949429 1.838069 7.090477
H 3.464735 0.329388 7.443986
O 15.663791 3.257017 4.057119
H 16.440817 3.057093 4.653995
H 15.268117 4.140034 4.309553
O 10.626718 7.611094 9.714532
H 10.576474 8.052434 10.610464
H 10.186021 6.714562 9.759424
O 10.035840 15.809500 17.093440
H 10.083734 16.210698 16.178701
H 10.309803 14.848707 17.050768
O 0.174256 15.211122 15.944050
H 0.253723 15.654649 15.051319
H 1.067225 15.205556 16.394135
O 3.275531 8.803213 17.771757
H 4.071609 8.902034 18.368829
H 3.578772 8.570268 16.847754
O 14.460971 2.957589 1.311502
H 13.935339 2.182897 1.663016
H 15.048709 3.317776 2.035953
O 13.242430 7.865452 0.500675
H 13.163872 6.871491 0.577286
H 13.551851 8.105413 -0.419476
O 10.366081 13.927873 8.191335
H 10.571662 12.975754 7.965048
H 11.178202 14.490259 8.035827
O 2.997300 8.125904 9.313672
H 3.874482 8.602393 9.372923
H 3.042842 7.277056 9.840345
O 3.874133 5.138281 10.413505
H 3.166815 4.436452 10.329021
H 4.596511 4.965783 9.743867
O 4.763082 4.630478 18.384812
H 4.740074 4.968156 19.325793
H 5.575019 4.986926 17.922532
O 11.413321 3.493374 16.172557
H 11.188675 3.846794 17.080647
H 12.354286 3.741103 15.941873
O 11.349022 1.773803 14.080769
H 11.022965 2.424492 14.766547
H 11.835618 2.266052 13.359024
O 18.816218 13.073735 2.117158
H 17.979964 13.254329 1.599409
H 18.824491 12.119017 2.414558
O 0.532921 17.567739 8.837909
H 0.266479 16.634148 8.598290
H 1.529412 17.647150 8.811487
O 5.101238 15.701192 8.596077
H 5.717138 16.487975 8.636579
H 5.539797 14.960439 8.087206
O 9.697805 8.347844 12.090380
H 9.977563 7.746055 12.838433
H 8.794052 8.073322 11.761947
O 0.319957 5.243322 10.926119
H 1.094618 5.083407 10.314296
H 0.657720 5.507500 11.829516
O 1.685160 5.807338 18.349278
H 2.665122 5.617610 18.288627
H 1.343013 6.083980 17.451278
O 14.102052 8.939266 16.547598
H 14.429620 9.881659 16.479812
H 14.057261 8.535422 15.633867
O 8.442915 5.891044 3.241652
H 8.511633 5.131176 2.595217
H 7.532441 6.299961 3.179810
O 16.021235 6.075804 12.118806
H 15.482877 5.753929 12.897630
H 16.886943 5.576543 12.082916
O 2.413884 14.928927 17.322602
H 1.866627 15.163432 18.126043
H 2.512109 13.935453 17.264622
O 6.815039 4.752645 12.605572
H 6.296960 3.915693 12.781937
H 6.739256 4.993929 11.638080
O 9.160019 16.849863 14.644278
H 9.412890 17.331052 13.804925
H 8.235921 17.117917 14.916655
O 4.512752 5.388654 2.480482
H 5.162503 6.044032 2.865583
H 3.583300 5.744678 2.577260
O 1.303033 11.187953 14.835007
H 1.099654 10.891686 15.768207
H 1.341647 10.390368 14.233037
O 12.441977 9.747575 12.476577
H 12.777947 9.225069 11.692924
H 11.559582 10.159396 12.249023
O 13.709957 8.615885 3.078663
H 12.834310 8.384851 3.502769
H 13.719083 8.289146 2.133592
O 17.907228 17.174073 11.356378
H 18.347711 17.547207 10.539833
H 17.224793 16.494934 11.086096
O 12.832261 16.816694 10.569909
H 13.740642 17.224746 10.478603
H 12.897119 15.975644 11.106965
O 0.822989 12.938088 9.965325
H 0.692701 13.214411 10.917517
H 0.228705 13.484670 9.375345
O 7.281912 16.504208 17.479367
H 6.935943 17.145869 16.794841
H 8.221477 16.248489 17.251717
O 9.633199 1.065059 1.100567
H 10.008480 0.990506 0.176658
H 10.161206 0.486742 1.722467
O 17.895794 1.868152 5.499015
H 18.309329 1.870221 4.588530
H 17.261621 1.098734 5.575313
O 13.453949 16.137695 4.903898
H 14.004970 16.576667 4.194195
H 12.890350 16.825490 5.361386
O 1.664425 17.931193 18.157802
H 1.289015 17.110865 18.589230
H 2.202976 18.443051 18.827103
O 13.040443 9.821799 6.265206
H 13.498908 8.937488 6.176869
H 13.336003 10.425879 5.525116
O 8.621070 13.764742 14.076403
H 8.043125 13.932983 14.874948
H 8.270023 14.282083 13.295938
O 6.520350 16.148134 1.846801
H 6.705053 16.536944 0.944188
H 5.819565 15.439206 1.767297
O 15.339421 18.383008 12.524976
H 16.229068 18.327323 12.071735
H 15.377358 19.070258 13.250405
O 18.271472 1.865267 9.286545
H 18.664271 1.089169 8.793208
H 17.339490 2.028721 8.962983
O 2.138332 3.300370 7.436929
H 1.300591 3.676580 7.041130
H 2.106880 3.391524 8.432269
O 11.822608 15.520188 0.256178
H 11.818729 14.574902 0.582399
H 10.995829 15.691250 -0.279709
O 8.358937 10.600271 13.701522
H 8.599047 10.528171 12.733458
H 8.333155 11.563858 13.967670
O 9.661015 9.498017 2.788316
H 10.183078 10.190439 2.290318
H 10.273622 8.762059 3.076548
O 14.831227 15.684236 0.535473
H 13.947405 15.249414 0.362880
H 15.358259 15.716621 -0.313756
O 3.462559 12.647621 15.018508
H 3.183995 13.448784 14.488849
H 2.809536 11.905304 14.868422
O 16.528254 12.423158 12.384501
H 17.437379 12.429907 12.800968
H 15.907036 12.984641 12.931151
O 10.395337 11.217528 7.705347
H 9.702292 10.518123 7.880049
H 11.167987 10.807427 7.220755
O 10.478243 2.078708 9.519224
H 10.370011 1.696045 8.601698
H 10.477515 1.338297 10.191379
O 6.026318 14.882817 4.772178
H 6.147811 14.809951 3.782264
H 5.183403 15.383742 4.968563
O 18.067213 3.407535 13.878508
H 18.704953 4.155038 13.692692
H 18.248145 2.651041 13.250033
O 2.471857 13.625354 3.327163
H 1.502372 13.579320 3.086371
H 2.599431 14.279492 4.072702
O 0.816653 10.554830 17.402342
H 0.101903 10.390874 18.082231
H 1.622504 10.007055 17.627169
O 6.938416 2.357548 14.769362
H 7.849503 2.230334 14.377269
H 6.981960 2.233937 15.760736
O 0.644725 3.383396 0.447633
H 0.459071 2.934452 -0.426427
H 0.909234 4.333896 0.284584
O 14.249633 8.276045 13.867466
H 13.443221 8.748028 13.511192
H 15.044586 8.503551 13.305068
O 0.131839 1.780241 2.845836
H 0.112156 2.312078 1.999217
H 0.998005 1.284352 2.907885
O 11.367553 13.134741 1.583155
H 10.453055 12.783877 1.784618
H 11.885498 13.223274 2.433975
O 6.232365 8.478976 14.262123
H 6.730225 9.302805 13.991124
H 6.813775 7.677318 14.123173
O 15.389986 17.505120 9.331666
H 15.396389 18.437570 8.970422
H 15.207219 16.861117 8.588796
O 7.411688 4.542022 17.264512
H 8.165201 5.002107 17.734127
H 7.613708 3.565704 17.187111
O 14.879778 11.530626 16.112284
H 14.630737 11.536276 17.080761
H 15.750390 12.006956 15.989218
O 4.027078 16.930646 15.994588
H 3.344018 17.649166 15.863596
H 3.607469 16.153301 16.463271
O 16.528838 8.550564 12.665300
H 16.456125 7.616292 12.316231
H 16.516801 9.194182 11.900049
O 12.081412 2.927295 5.255503
H 12.911170 2.410644 5.044378
H 12.319771 3.734702 5.795207
O 6.990269 7.007847 5.902939
H 7.034777 8.004995 5.841989
H 6.033746 6.716192 5.901580
O 18.066725 2.528470 16.541072
H 17.843106 2.808812 15.607582
H 17.224570 2.311373 17.034675
O 17.562854 9.728913 15.178393
H 17.383667 10.691827 14.976677
H 17.438049 9.185620 14.348178
O 8.326124 13.384249 1.042034
H 8.441095 13.232116 2.023684
H 8.164853 14.356408 0.872040
O 6.403368 18.005372 9.031980
H 6.526501 18.997264 9.063404
H 7.277044 17.555044 9.216088
O 13.817892 18.404540 18.101076
H 13.045226 18.288222 17.477011
H 14.334837 17.550183 18.154380
O 8.549518 9.208838 8.809309
H 9.258677 8.578332 9.124832
H 7.837856 9.286452 9.507531
O 11.573073 10.125084 0.688806
H 10.883719 10.157572 -0.034891
H 12.160101 9.326759 0.554367
O 18.109270 15.306039 8.311850
H 17.422674 15.555709 7.629025
H 17.653457 14.958036 9.131074
O 2.529249 12.303764 0.401864
H 1.932910 12.649935 1.126119
H 2.879513 11.403488 0.660354
O 0.526971 11.859579 6.646374
H 0.265890 11.078227 7.213229
H 1.435902 11.702310 6.260224
O 6.864749 14.134329 16.140154
H 6.010719 13.731487 16.469321
H 7.102355 14.922226 16.708275
O 18.319803 1.456071 12.034638
H 18.346633 0.466663 12.177297
H 18.074219 1.649328 11.084721
O 4.217379 4.119943 6.019543
H 4.190528 3.733211 5.097742
H 3.520298 3.680264 6.585900
O 16.635077 14.260670 10.226707
H 15.778931 14.250291 9.710077
H 16.738995 13.395357 10.717048
O 3.709522 6.014806 12.928999
H 4.148744 5.249777 13.399970
H 3.893358 5.952136 11.948042
O 8.202593 16.970326 6.396167
H 8.136695 17.699331 5.714838
H 8.033464 16.087772 5.957426
O 14.361265 1.969165 10.831183
H 14.415942 0.986541 11.008555
H 14.452960 2.468944 11.692468
O 10.259810 18.649457 11.020899
H 9.694854 18.031075 10.474612
H 11.185193 18.277706 11.094847
O 8.899820 12.890694 3.563559
H 8.346360 12.091688 3.798658
H 9.078612 13.426762 4.388583
O 5.391849 16.720199 12.594837
H 5.874278 16.799674 13.467160
H 6.047860 16.514386 11.868690
O 13.150246 0.737597 2.068464
H 13.427548 0.509202 1.135223
H 12.389741 0.149433 2.343589
O 12.698294 4.637334 7.148583
H 12.137065 5.453467 7.286233
H 12.816217 4.162888 8.020933
O 15.685870 1.736251 8.713415
H 15.183685 1.820125 9.574099
H 15.552395 2.563493 8.167655
O 0.381948 10.554970 3.318250
H 1.359865 10.382218 3.200629
H -0.105707 9.683909 3.376951
O 8.838147 16.459551 3.543284
H 8.109354 15.922074 3.119045
H 8.490259 17.367754 3.775969
648
Lattice="18.620600 0.000000 0.000000 0.000000 18.620600 0.000000 0.000000 0.000000 18.620600" Properties=species:S:1:pos:R:3 pbc="T T T" step=200
O 1.857083 6.755796 2.549436
H 1.848587 6.206044 3.384721
H 1.101004 6.475314 1.958103
O 1.966208 3.121171 10.583895
H 2.155976 2.709353 11.475183
H 1.348382 2.528200 10.067489
O 18.425001 4.292227 5.963873
H 17.841206 4.323626 6.775167
H 18.216749 3.469460 5.435020
O 5.598582 12.822177 12.718157
H 4.989778 13.256311 12.054164
H 5.219316 12.928393 13.637328
O 15.206296 15.491375 7.380203
H 14.810403 14.974409 8.139159
H 14.545548 15.542743 6.631355
O 17.478325 5.656694 8.204019
H 18.058905 6.388664 7.847443
H 17.570285 5.613003 9.198822
O 11.603451 7.010682 6.680910
H 12.562304 7.290196 6.730636
H 11.132152 7.285894 7.518845
O 17.707063 5.648159 2.133300
H 17.625989 5.736586 1.140523
H 17.334928 4.765636 2.420822
O 6.850622 11.326719 10.619370
H 6.470337 11.645518 11.487558
H 7.244278 12.100844 10.123622
O 9.565305 6.868739 17.936892
H 9.636059 7.407754 18.776212
H 9.192502 7.439055 17.204937
O 7.065030 10.248252 6.329058
H 7.560028 9.998460 7.161273
H 6.204335 10.694366 6.574385
O 7.006962 11.298226 18.115864
H 7.358997 12.049169 18.674574
H 6.221965 11.617399 17.584913
O 3.478970 13.832445 10.595156
H 2.553730 13.613586 10.285266
H 3.996037 14.237296 9.841009
O 14.888343 15.936077 14.182984
H 14.918204 16.680084 13.515479
H 13.951281 15.821651 14.512866
O 4.531323 4.367760 14.787041
H 5.412745 3.988303 14.505779
H 3.890234 3.622164 14.968953
O 15.254431 3.673305 7.044471
H 14.316217 4.008459 6.958292
H 15.849315 4.420371 7.341126
O 2.006445 -0.235349 4.718411
H 2.459201 0.291952 5.437415
H 2.405559 -0.001317 3.831880
O 10.926245 13.288722 17.480924
H 11.024385 13.156006 18.467207
H 10.536944 12.463986 17.070735
O 2.615509 15.640575 5.232187
H 3.202278 16.423939 5.027141
H 1.834600 15.943067 5.778703
O 2.775909 11.282965 9.134954
H 2.599528 10.301077 9.204138
H 2.029644 11.787107 9.569614
O 6.349630 17.716456 14.738635
H 5.488603 17.622629 15.238464
H 6.570029 18.686182 14.633486
O 5.570823 9.773665 1.660164
H 6.036281 10.140577 0.854730
H 5.952236 10.191492 2.484752
O 15.250728 2.306063 13.652054
H 16.171716 2.538138 13.964981
H 14.594407 2.954614 14.037571
O 1.297978 6.447611 5.581272
H 0.698540 5.647201 5.577061
H 1.114776 6.996952 6.396540
O 18.442167 17.417963 2.405392
H 19.083468 17.758229 3.093107
H 17.948000 18.187453 2.000814
O 1.172322 15.660472 0.859321
H 1.057569 14.726726 1.198365
H 0.478837 16.252004 1.270620
O 16.303560 9.051844 5.781888
H 16.799613 8.385779 5.224851
H 16.210939 9.908176 5.273835
O 16.571186 11.392432 4.367081
H 17.336260 10.886199 3.969098
H 16.843846 11.765835 5.253776
O 1.186760 7.452448 15.508914
H 2.093517 7.873700 15.527319
H 0.487388 8.167116 15.497592
O 6.288522 13.787478 7.181322
H 5.835513 12.903871 7.062911
H 6.268693 14.290642 6.317359
O 13.276644 11.829014 13.990268
H 13.207355 10.989220 13.451802
H 13.634877 11.613838 14.898766
O 7.907236 0.325890 4.291405
H 8.587931 1.058119 4.269159
H 7.100238 0.636155 4.793888
O 2.338768 10.459900 12.481028
H 3.232393 10.032669 12.618536
H 2.459681 11.354553 12.050941
O 15.531538 10.085913 2.203664
H 14.884940 9.327169 2.282529
H 15.625107 10.537688 3.090876
O 12.339705 18.445114 15.680355
H 12.318878 18.717463 14.718382
H 12.285406 17.448745 15.745932
O 3.221653 2.212104 18.243509
H 3.705215 3.087401 18.238644
H 2.242154 2.371750 18.120646
O 14.259303 13.929464 9.456358
H 13.806082 14.097114 10.331849
H 14.088365 12.987465 9.167537
O 16.588843 17.626644 5.662033
H 15.925347 17.216734 6.287929
H 16.509078 17.196125 4.762983
O 6.201294 7.655591 3.001688
H 6.118997 8.465499 2.420935
H 6.602093 7.914864 3.880402
O 12.850349 3.886233 9.485519
H 11.877343 3.657064 9.512739
H 13.381351 3.132029 9.871800
O 15.913804 16.451597 3.114468
H 16.913777 16.445270 3.118024
H 15.581047 16.059057 2.257039
O 7.633843 6.135449 15.016590
H 7.405886 5.946488 15.971749
H 7.207902 5.446837 14.429745
O 14.405822 3.946425 16.376421
H 14.152676 4.183647 17.314314
H 15.130074 3.257042 16.390884
O 9.494221 8.803630 15.495306
H 9.897792 8.053246 14.971804
H 9.031116 9.433652 14.871923
O 9.785532 4.357397 11.829877
H 9.951541 3.375378 11.739992
H 8.830821 4.512162 12.083990
O 10.719304 7.288953 4.220421
H 10.827552 6.955941 5.157109
H 9.886878 6.902420 3.823358
O 0.534089 7.861255 7.822033
H 1.365088 7.909970 8.376171
H -0.086243 8.599889 8.085865
O 1.864656 18.686493 15.163535
H 1.913646 18.503261 16.145383
H 1.115750 18.158624 14.762917
O 8.333847 3.792560 1.707680
H 9.135184 3.669358 1.122289
H 7.768870 2.968016 1.677208
O 16.805393 5.551229 18.077896
H 16.844801 6.493183 17.744476
H 17.111292 4.929392 17.356963
O 13.726111 11.425411 4.354819
H 14.720522 11.461316 4.255536
H 13.380132 12.337106 4.576430
O 6.257383 1.766277 9.661612
H 6.279814 1.766345 10.661360
H 6.276792 2.708686 9.327715
O 10.331652 14.098040 5.266263
H 9.969056 14.935196 4.856760
H 10.408029 14.217207 6.256196
O 3.559099 17.957199 9.153286
H 3.823869 17.205428 8.549351
H 4.368125 18.495027 9.390389
O 17.361909 9.929917 8.377481
H 16.898675 9.820116 7.498074
H 16.680789 10.029222 9.102887
O 12.643724 15.907398 15.560180
H 13.075941 15.353487 16.271778
H 12.161033 15.309898 14.919865
O 2.905439 9.339460 2.847361
H 3.798663 9.529345 2.439816
H 2.689586 8.368960 2.739947
O 14.182387 7.646598 7.252713
H 14.386052 6.932975 7.922984
H 15.031277 8.098636 6.978767
O 4.778876 12.639763 17.426160
H 4.476293 12.874925 16.502503
H 3.981581 12.461492 18.002823
O 11.086016 17.561900 2.025950
H 10.348749 17.109893 2.528073
H 11.538344 16.898883 1.429454
O 2.286279 2.584769 15.121726
H 1.444477 3.029865 15.427109
H 2.135716 1.598589 15.052592
O 16.935824 13.392258 0.306231
H 16.495269 14.277560 0.455063
H 16.252914 12.664773 0.372557
O 5.080500 17.738661 3.949391
H 5.050446 18.530788 4.559007
H 5.697170 17.929117 3.185556
O 14.263260 1.273989 4.403282
H 14.022474 1.029682 3.463954
H 15.046983 1.895053 4.395695
O 2.974334 17.541491 11.866739
H 3.869205 17.161110 12.100228
H 2.944282 17.746550 10.888451
O 8.985659 16.665823 8.972793
H 9.353262 15.747729 9.121017
H 9.057634 16.901212 8.003561
O 4.434784 6.886954 5.521357
H 4.581420 5.899526 5.462321
H 3.502426 7.067320 5.834687
O 15.933417 2.011517 17.911198
H 15.494473 2.351963 18.742717
H 15.647187 1.067765 17.745651
O 6.543719 1.477828 1.748643
H 7.400428 0.970528 1.841897
H 6.074234 1.188661 0.914397
O 7.549254 1.852891 17.104278
H 8.418186 1.425571 17.353986
H 6.798996 1.221064 17.298978
O 7.751315 15.684246 11.408095
H 7.777904 14.866112 10.833682
H 7.620195 16.491459 10.832582
O 14.111331 5.336653 14.204650
H 14.209841 4.898729 15.098249
H 13.994666 6.322198 14.327493
O 7.620281 13.754737 9.555584
H 8.534714 13.723260 9.152073
H 6.941957 13.507407 8.863699
O 9.013212 5.709582 9.305437
H 8.859759 5.378641 8.374346
H 9.411771 4.977528 9.857929
O 5.927140 1.292464 5.894412
H 5.223920 1.372200 6.600899
H 6.303058 2.197335 5.694677
O 13.943689 11.590273 0.351054
H 14.516895 10.970318 0.886862
H 13.013900 11.586350 0.719125
O 2.891229 0.406587 2.204106
H 3.396423 1.162659 1.788012
H 3.428691 -0.433539 2.131142
O 9.370758 2.757187 4.512040
H 9.093803 3.167018 3.642940
H 10.368736 2.752774 4.575450
O 10.462129 6.327769 14.224593
H 9.523957 5.982131 14.205424
H 11.085738 5.617551 13.897940
O 12.289023 16.164061 8.268377
H 12.182395 16.929457 7.633713
H 12.581798 16.508882 9.160219
O 4.648442 11.440175 6.864332
H 3.909804 11.584914 7.522712
H 4.271542 11.063919 6.017941
O 12.671413 0.116713 6.390147
H 13.292131 0.761678 5.944358
H 11.814800 0.580540 6.616151
O 10.709596 4.613709 0.121015
H 10.214175 5.436683 -0.156963
H 11.187428 4.787220 0.982160
O 0.831864 5.483839 13.775387
H 1.786720 5.465552 13.478881
H 0.712216 6.192720 14.470493
O 5.488579 2.340348 12.171893
H 5.848677 2.064463 13.063081
H 4.517007 2.109583 12.119023
O 8.445015 4.641085 6.435061
H 8.212551 5.438248 5.877843
H 8.871644 3.944312 5.858436
O 10.159605 1.297081 6.844868
H 9.741950 1.885776 6.152767
H 9.614858 0.464750 6.947224
O 14.509669 11.340311 8.035173
H 13.754456 10.892194 7.556795
H 15.082178 11.825123 7.373969
O 14.466072 5.995802 9.785051
H 13.649797 5.427061 9.886179
H 15.041740 5.900032 10.597107
O 18.028591 7.601030 3.973305
H 18.876763 7.268736 4.385840
H 17.677432 6.915720 3.335310
O 4.532705 14.255903 1.499400
H 4.068832 14.117838 2.374477
H 4.442586 13.431473 0.940658
O 17.067973 13.090182 6.495091
H 18.033688 12.957283 6.718098
H 16.878388 14.067817 6.404060
O 13.912807 5.189189 0.024538
H 14.187411 4.353368 0.499929
H 14.726881 5.714132 -0.223894
O 5.276977 3.572400 3.065181
H 5.658870 2.817991 2.531304
H 5.170200 4.375249 2.478639
O 17.316391 12.438672 16.339314
H 17.286528 12.596159 17.326384
H 17.756165 13.216766 15.890796
O 11.544016 14.073288 13.924239
H 10.548764 14.025350 13.839530
H 11.922853 13.147855 13.931770
O 15.876816 16.129819 16.615481
H 15.375262 16.129699 15.750354
H 16.854305 16.022076 16.434077
O 9.836853 11.520065 11.438642
H 9.250081 12.299003 11.217386
H 10.432535 11.319926 10.660755
O 15.840586 10.297984 10.595488
H 15.874799 11.275969 10.801336
H 14.891269 10.022066 10.444937
O 8.849620 1.784443 12.814295
H 8.776881 0.934255 12.292865
H 9.762338 1.851173 13.217399
O 9.732009 10.718210 17.314393
H 8.776243 11.008806 17.268955
H 9.834139 9.835419 16.855862
O 7.342353 10.489260 3.603175
H 7.407079 10.315999 4.585922
H 8.081784 10.009620 3.130747
O 4.363710 8.531877 12.716648
H 4.926400 8.554402 13.543008
H 3.828752 7.687151 12.700589
O 12.735292 3.504797 12.563775
H 13.237699 4.289872 12.926052
H 12.015994 3.825031 11.947285
O 0.790401 16.712304 13.552480
H 0.041070 17.100212 13.015796
H 1.642198 16.779709 13.032961
O 2.728488 10.893682 4.850472
H 2.757185 11.825647 4.489060
H 2.833436 10.241622 4.099604
O 6.267757 4.548253 8.610917
H 6.205725 4.714387 7.626767
H 6.825462 5.261835 9.034905
O 12.833948 14.009006 4.379358
H 13.238574 14.808283 4.823695
H 11.868648 13.940562 4.631372
O 13.260409 14.664544 11.869290
H 14.025851 14.409893 12.460264
H 12.401261 14.546569 12.367234
O 13.633225 5.688229 4.083283
H 13.581306 5.487952 5.061646
H 13.916727 6.638187 3.952106
O 3.108161 14.530032 13.148373
H 2.984704 14.260679 12.193278
H 3.760017 15.286634 13.199723
O 4.151031 7.053850 16.156172
H 4.857392 7.675599 15.817820
H 4.285661 6.147212 15.756319
O 16.280749 8.126146 17.267435
H 15.339209 8.458481 17.322710
H 16.721801 8.507849 16.455169
O 10.157227 1.066291 17.050673
H 10.616743 1.954444 17.045408
H 10.777868 0.367781 16.694457
O 5.325454 0.426965 18.237579
H 5.145638 -0.540332 18.416476
H 4.458499 0.921933 18.179307
O 6.051980 8.745685 10.597933
H 6.116212 9.665430 10.210709
H 5.473318 8.766947 11.413223
O 13.611256 8.792546 10.127449
H 12.786444 8.822789 9.562852
H 13.999173 7.871210 10.101749
O 11.460017 5.079366 2.695644
H 12.342689 4.887472 3.124675
H 11.005494 5.822743 3.186357
O 2.740248 1.469036 12.564014
H 2.555380 1.782570 13.495421
H 2.747501 0.469260 12.544142
O 0.496718 13.115348 12.830306
H 0.516907 12.587909 13.679659
H 1.174186 13.849379 12.877596
O 7.530046 6.775089 11.395377
H 8.114899 6.706542 10.587139
H 6.899026 7.543109 11.286019
O 17.442248 9.963469 0.078415
H 17.110080 9.122889 -0.349477
H 17.017217 10.070404 0.977256
O 3.217484 0.844445 6.777719
H 2.806185 1.741060 6.941773
H 2.987848 0.229350 7.531990
O 15.644465 3.594001 3.845336
H 16.099609 3.431341 4.720771
H 15.117074 4.442090 3.896369
O 10.774387 7.797618 9.614795
H 10.437064 8.167212 10.480597
H 10.430194 6.866634 9.493137
O 10.203231 15.661800 16.952107
H 10.226659 15.992842 16.008782
H 10.520509 14.713897 16.980676
O -0.136864 15.187686 15.777748
H 0.144143 15.673070 14.949836
H 0.656948 14.735960 16.184941
O 3.205644 8.944620 18.139900
H 3.912211 9.155325 18.815449
H 3.517841 8.197594 17.552971
O 14.653790 2.916302 1.451254
H 13.750655 2.514207 1.601813
H 15.146254 2.964517 2.320250
O 12.833372 7.751883 18.867978
H 12.953423 6.787451 18.632483
H 13.179961 8.322435 18.123433
O 10.158438 13.968001 8.364977
H 10.308840 12.980332 8.321498
H 11.038908 14.436298 8.438935
O 3.029802 7.941054 8.928873
H 3.888406 8.442533 8.822489
H 3.176993 7.150478 9.523283
O 3.933019 5.055608 10.112790
H 3.370475 4.277122 10.391183
H 4.803178 4.724474 9.747861
O 4.488879 4.529809 18.244057
H 4.214112 5.010601 19.076728
H 5.323325 4.943662 17.880153
O 11.706520 3.198708 16.711496
H 11.394380 3.762422 17.476215
H 12.631788 3.473903 16.450445
O 11.263759 2.156344 14.218520
H 11.410533 2.286707 15.199062
H 11.956182 2.665429 13.707263
O 0.567659 12.858819 1.912895
H -0.217964 13.054658 1.326001
H 0.363895 12.067680 2.489591
O 0.849636 17.830049 8.849885
H 0.511076 16.911359 8.646451
H 1.826415 17.786445 9.059649
O 4.951642 15.918655 8.264289
H 5.701193 16.484374 8.607998
H 5.325901 15.126806 7.781686
O 9.821552 8.053375 12.150548
H 10.378280 7.567877 12.824599
H 8.938045 7.594718 12.055425
O -0.147494 4.984573 10.819393
H 0.569758 4.317174 10.619073
H 0.079910 5.476058 11.660065
O 1.782506 5.411157 17.784992
H 2.758860 5.276194 17.616120
H 1.430997 6.113061 17.165499
O 13.873293 9.170006 16.759449
H 14.136897 10.102285 16.511725
H 13.954580 8.576694 15.958591
O 8.622256 6.144546 3.070459
H 8.495541 5.298024 2.553407
H 7.800457 6.708957 2.992444
O 16.113565 5.807666 12.069408
H 15.658105 5.637563 12.943263
H 16.822458 5.117681 11.923149
O 2.083074 14.593111 17.223029
H 1.616826 15.067042 17.970024
H 2.786639 13.989884 17.598681
O 7.064597 4.580704 12.832635
H 6.382715 4.129496 12.256920
H 7.178835 5.528132 12.533754
O 9.103870 16.966936 14.244777
H 9.227263 16.404899 13.426921
H 8.127389 17.106681 14.408962
O 4.275898 5.918413 2.122472
H 4.944087 6.426313 2.666127
H 3.389589 6.379246 2.168183
O 1.253720 11.373368 14.795301
H 1.539452 11.076532 15.706479
H 1.395117 10.629007 14.142665
O 12.220993 9.354962 12.757734
H 12.513493 9.210965 11.812372
H 11.270364 9.665087 12.768944
O 13.643192 8.272228 3.062629
H 13.000517 8.749628 3.661844
H 13.174581 7.996714 2.223286
O 17.659386 17.736577 11.535963
H 18.601034 17.539595 11.263021
H 17.037695 17.484167 10.794485
O 12.787080 17.140961 10.771443
H 13.685919 17.566103 10.877940
H 12.786351 16.246494 11.218577
O 0.896373 13.175639 9.867426
H 0.054274 13.204167 10.405995
H 0.677253 13.298074 8.899441
O 7.697182 16.562056 17.728373
H 7.592738 17.317072 17.081038
H 8.647132 16.249668 17.725653
O 9.776365 1.084709 1.347473
H 9.917928 1.080503 0.357553
H 10.315087 0.352583 1.764330
O 17.559232 1.821476 4.968308
H 18.104187 1.653859 4.146768
H 17.298276 0.947917 5.379156
O 13.995391 16.576662 4.902547
H 14.483670 16.820452 4.064603
H 13.569889 17.394351 5.290274
O 1.498999 18.297596 17.991831
H 1.789146 17.405841 18.339089
H 1.859640 19.018950 18.583089
O 12.707727 10.194028 6.694404
H 13.217974 9.340841 6.802666
H 12.921327 10.599668 5.805680
O 8.568320 13.629173 13.770782
H 8.191509 13.786280 14.683651
H 7.827305 13.631971 13.099299
O 6.422375 16.433973 1.638294
H 6.949799 16.489338 0.790498
H 5.551570 15.975894 1.459794
O 15.236804 -0.055606 12.423949
H 16.119739 -0.390988 12.095399
H 15.375004 0.777705 12.959200
O 18.366583 1.716468 9.562304
H 18.875319 0.906014 9.271870
H 17.446263 1.689887 9.172043
O 2.141571 3.336664 7.325465
H 1.395170 3.747232 6.801711
H 2.176554 3.749481 8.235607
O 12.001014 15.731953 0.340414
H 11.844032 14.766943 0.550446
H 11.424839 16.003279 -0.430563
O 8.190406 10.686398 13.892243
H 8.288371 10.843589 12.909545
H 8.219337 11.562021 14.374372
O 9.409806 9.153787 2.787720
H 9.847834 9.640344 2.031815
H 10.078783 8.558993 3.233467
O 14.932530 15.570076 0.455776
H 13.966829 15.714553 0.671524
H 15.116980 15.885816 -0.474969
O 3.775766 12.674242 14.909939
H 3.612103 13.419108 14.263109
H 3.134601 11.928537 14.728745
O 16.644918 12.323488 12.300832
H 17.587494 12.511244 12.577054
H 16.169598 11.846665 13.040231
O 10.621619 10.965852 8.505074
H 9.772801 10.452351 8.379278
H 11.304074 10.648107 7.846825
O 10.173533 2.587624 9.274337
H 10.237549 2.151898 8.376537
H 9.815391 1.931430 9.938524
O 6.081250 15.399601 4.891458
H 6.135387 14.732830 4.148164
H 5.840126 16.295600 4.518568
O 17.673154 3.468266 14.042569
H 18.269366 4.271091 14.040696
H 18.027585 2.788377 13.400596
O 2.811316 13.458433 3.531890
H 2.015265 13.500299 2.928110
H 2.760962 14.199263 4.201692
O 1.192984 10.447907 17.624373
H 0.389145 10.329967 18.207411
H 1.867633 9.741975 17.840033
O 6.760511 2.012775 14.720766
H 7.543251 2.179670 14.121214
H 7.033867 2.152504 15.672476
O 0.631522 3.271136 0.448514
H -0.058889 3.018375 -0.229308
H 1.068545 4.128161 0.175530
O 14.055086 8.088097 14.238634
H 13.207821 8.386393 13.799134
H 14.836260 8.365355 13.679264
O 0.303937 1.766792 2.578431
H 0.325510 2.347987 1.764953
H 1.093660 1.153375 2.570853
O 11.811394 13.089941 1.855535
H 11.496246 12.146230 1.956001
H 12.417623 13.321678 2.616314
O 6.409433 8.712453 15.071482
H 6.710910 9.649464 14.895065
H 7.190087 8.091787 14.998316
O 15.797865 17.357111 9.355292
H 16.106535 18.237692 8.995711
H 15.473366 16.784813 8.602181
O 7.374462 4.882896 17.596521
H 8.248679 5.143305 18.006315
H 7.319273 3.886371 17.534143
O 14.728318 11.607038 16.346218
H 14.470927 11.913546 17.262626
H 15.711791 11.733328 16.216488
O 3.957326 16.674332 15.739411
H 3.343198 17.434032 15.525629
H 3.425167 15.833668 15.839862
O 16.358990 9.015444 12.962590
H 16.320516 8.100985 12.559744
H 16.167281 9.698478 12.257812
O 12.016339 2.661789 5.157573
H 12.746946 2.346524 4.551915
H 12.375823 3.357598 5.779361
O 6.948868 7.202498 5.878940
H 7.104524 8.173249 6.061731
H 5.972613 7.043354 5.731972
O 18.271526 2.759637 16.498611
H 18.017366 2.993489 15.560146
H 17.493551 2.330532 16.957548
O 17.803453 9.276303 15.233540
H 17.987062 10.196303 15.579788
H 17.489555 9.333341 14.285799
O 7.934184 13.458138 0.896459
H 8.004435 13.279559 1.877874
H 8.121223 14.424377 0.719262
O 6.467078 17.788898 9.606569
H 6.328677 18.766928 9.762461
H 7.414701 17.625984 9.331851
O 14.041384 18.693607 17.824313
H 13.477286 18.842800 17.012196
H 14.047252 17.719837 18.051771
O 8.281526 9.068943 8.427105
H 8.933981 8.311604 8.454293
H 7.657503 8.999394 9.205409
O 11.224347 10.250405 0.923351
H 10.516293 10.416281 0.236951
H 11.736783 9.426516 0.681242
O 17.995189 15.586177 7.931923
H 17.225937 16.019199 7.462090
H 17.649519 14.973757 8.642877
O 2.775043 11.892489 0.503697
H 2.032004 12.123880 1.131671
H 2.426783 11.295841 -0.219301
O 0.600620 11.507826 6.807805
H 0.336180 10.820243 7.484045
H 1.236932 11.102392 6.151504
O 7.456168 13.935235 16.534349
H 6.851897 13.361554 17.087292
H 7.498825 14.852650 16.929988
O 18.418647 1.670741 12.321805
H 18.237749 0.703269 12.498649
H 18.452291 1.828576 11.334912
O 4.475597 4.050881 5.709702
H 4.769243 3.766870 4.796953
H 3.645152 3.554301 5.962226
O 16.795281 14.151525 10.122849
H 15.826135 14.184364 9.878558
H 16.886817 13.937114 11.095294
O 3.587615 6.033007 12.802058
H 3.863199 5.421342 13.543624
H 4.011443 5.732844 11.947499
O 8.195569 16.928965 6.249633
H 7.901962 17.572111 5.542415
H 7.609283 16.119152 6.227890
O 14.293314 1.937568 10.833564
H 14.673861 1.082962 11.186882
H 13.906130 2.467196 11.588272
O 10.280968 18.599378 10.431735
H 9.706206 18.051372 9.824003
H 11.050846 18.046544 10.750580
O 8.757037 12.719088 3.378277
H 8.330124 11.906333 3.774730
H 9.383234 13.124980 4.043956
O 5.259329 16.408069 12.669467
H 5.810763 16.721637 13.442510
H 5.847403 15.943989 12.007049
O 12.984608 0.837147 1.853883
H 13.145429 0.706798 0.875545
H 12.297186 0.182704 2.168771
O 12.620555 4.548785 6.927187
H 12.034991 5.358004 6.879434
H 12.721813 4.266456 7.881145
O 15.853896 1.479824 8.525202
H 15.172720 1.573866 9.251257
H 15.645260 2.121625 7.787258
O 0.198624 10.057244 3.070505
H 1.169183 9.819122 3.106746
H -0.350395 9.221572 3.085682
O 8.742852 16.468193 3.115911
H 8.001721 16.178567 2.510237
H 8.408990 17.179237 3.734744
