LAMMPS data file via write_data, version 22 Jul 2025, timestep = 300, units = metal

108 atoms
1 atom types

0 10.845 xlo xhi
0 10.845 ylo yhi
0 10.845 zlo zhi

Masses

1 63.55

Atoms # atomic

1 1 10.699436613748285 10.796538908767563 10.719928853597546 -1 -1 -1
2 1 10.775978271667649 1.8557273823847587 1.783099213164549 -1 0 0
3 1 1.669757823874181 10.83055365691234 1.8192019368843175 0 -1 0
4 1 1.7177499054850707 1.6949341079958884 10.822847058701864 0 0 -1
5 1 10.799543033989764 0.00026841548892609073 3.7005228854059045 -1 0 0
8 1 1.807053685165889 1.827010788425055 3.6811234963753043 0 0 0
13 1 0.056467926326380924 3.565334029299126 10.804398625994363 0 0 -1
15 1 1.8769189323011357 3.638546066932296 1.7972341080183534 0 0 0
17 1 0.1678400128128256 3.6599872197489343 3.5781113026123457 0 0 0
37 1 3.549394352101976 10.808977473509515 10.811164353358192 0 -1 -1
38 1 3.580127477561758 1.83313580220257 1.779282063445168 0 0 0
41 1 3.603395093665182 0.005542295816906002 3.5755783443683504 0 0 0
49 1 3.5944658331723907 3.5254670853392143 0.019763542753329817 0 0 0
53 1 3.698963569246325 3.6019281892887562 3.5649640003300194 0 0 0
39 1 5.473290191288032 0.11622870856839296 1.7056621131373573 0 0 0
40 1 5.425575791896473 1.763156656562203 10.76612431558876 0 0 -1
44 1 5.393671585115239 1.6874205048365138 3.548850979933688 0 0 0
51 1 5.446039605299338 3.5301523799017955 1.8978952384084686 0 0 0
73 1 7.2840986045729395 0.06074878790225381 10.824494065114141 0 0 -1
74 1 7.246857487732445 1.8482763763803587 1.7254694565116202 0 0 0
77 1 7.0952116397471645 10.766440995782503 3.6052609119014827 0 -1 0
85 1 7.268272215173302 3.6806998667097974 10.842376346765056 0 0 -1
89 1 7.163509160108251 3.530891881602252 3.662704300490857 0 0 0
75 1 8.928546233018052 0.0606570600878183 1.8672911041658737 0 0 0
76 1 9.09057698099264 1.8349562426133124 10.742810065244791 0 0 -1
80 1 8.918924406279277 1.8699624710774567 3.643867192922526 0 0 0
87 1 9.032656218731995 3.613474486071998 1.901152668911541 0 0 0
14 1 10.819553650622991 5.567070352940988 1.8491352369106357 -1 0 0
16 1 1.880576298476654 5.418201103747282 10.832805022797702 0 0 -1
20 1 1.8085684552626606 5.495750825779575 3.660691702614932 0 0 0
25 1 10.791710671654746 7.367788800096421 0.03997957920007521 -1 0 0
27 1 1.8139268724984188 7.250361395071946 1.9225092804391826 0 0 0
29 1 10.810194498678037 7.239766619826219 3.605064778727915 -1 0 0
50 1 3.704117191848928 5.3619267410444715 1.924304123773735 0 0 0
61 1 3.6743286830767037 7.197088314896881 0.04510098701203692 0 0 0
65 1 3.7337540355560757 7.137277164141361 3.6210927470928933 0 0 0
52 1 5.389227102237281 5.324984491672068 0.16325551473111954 0 0 0
56 1 5.620158626203967 5.425950746999195 3.5493113572746364 0 0 0
63 1 5.4293057094277515 7.154327309241409 1.773558574572376 0 0 0
86 1 7.388382150031129 5.481913314706007 1.8366027586124118 0 0 0
97 1 7.277499923292962 7.240682492415365 0.10530396001780179 0 0 0
101 1 7.164294347814526 7.282273798157199 3.6169574969105294 0 0 0
88 1 9.094449422956716 5.4732260696642685 10.809388054649887 0 0 -1
92 1 8.978588654465256 5.380971946469887 3.6451669645838893 0 0 0
99 1 9.107261778880014 7.336555470472843 1.8967780281359294 0 0 0
26 1 0.0004399819567842424 9.187390727784289 1.926887057683896 0 0 0
28 1 1.786390451937375 9.108075652536172 0.01917481163109567 0 0 0
32 1 1.8312410274367215 8.933910972916944 3.6593505824487127 0 0 0
62 1 3.511842194440576 9.111623420680933 1.8249246134184018 0 0 0
64 1 5.432087761364242 9.081074561649002 0.08649537830840345 0 0 0
68 1 5.265996397782383 9.059653977947606 3.513238891468399 0 0 0
98 1 7.240684884992939 9.079627345533487 1.8278451654833505 0 0 0
100 1 8.96182618597014 9.076006373271953 10.819483609967055 0 0 -1
104 1 8.996245048145402 9.044000509538316 3.6806727930582785 0 0 0
6 1 10.820889617120564 1.7783479216133857 5.378992548481561 -1 0 0
7 1 1.9290247759936514 10.782788924849882 5.364184038570343 0 -1 0
9 1 10.770751146496885 10.745383312288865 7.186374468934412 -1 -1 0
12 1 1.8161182246633962 1.8631337112141007 6.949894269300487 0 0 0
19 1 1.9430124256346946 3.6258577894812762 5.42659227630794 0 0 0
21 1 0.046249953260171194 3.6735845715964897 7.077445795985962 0 0 0
42 1 3.766680956955306 1.7736431059106783 5.347344225083297 0 0 0
45 1 3.576069589638442 0.04043422950939325 7.232684605408833 0 0 0
57 1 3.704327025880052 3.5671929098085213 7.158292564812866 0 0 0
43 1 5.345420868463575 10.711563954742488 5.503622010566352 0 -1 0
48 1 5.4177648513445655 1.9096700209482935 7.370435774216864 0 0 0
55 1 5.420217681909905 3.6179385581435834 5.37310220506162 0 0 0
78 1 7.177343789684356 1.7618359161607775 5.499909761109296 0 0 0
81 1 7.215514989733764 0.08646824368613326 7.275490535734755 0 0 0
93 1 7.227887094949595 3.6768015850523734 7.111371266117196 0 0 0
79 1 8.999284530592611 10.76958602019366 5.447476624226614 0 -1 0
84 1 9.140325108363076 1.8364474465428895 7.244373010008659 0 0 0
91 1 9.087715835125014 3.5921999201545383 5.334490429230151 0 0 0
18 1 0.008342503852390964 5.427958352907798 5.418310524963906 0 0 0
24 1 1.9113866346002921 5.436329390623048 7.135181513133929 0 0 0
31 1 1.7890847828911796 7.084378711978468 5.421915732938175 0 0 0
33 1 10.8173387786543 7.208401194814847 7.247267002240417 -1 0 0
54 1 3.8086912219797306 5.434037024844881 5.412690642022607 0 0 0
69 1 3.6160886164519317 7.073006774420005 7.245035019673344 0 0 0
60 1 5.522310482879952 5.4086619862354715 7.222380524213004 0 0 0
67 1 5.520740920578491 7.243177667339033 5.470626546292595 0 0 0
90 1 7.206531288828294 5.456938604052154 5.461922625833981 0 0 0
105 1 7.245845097611299 7.235626656523717 7.2598094357197045 0 0 0
96 1 9.058981149096084 5.468279163731674 7.1198788463195415 0 0 0
103 1 8.942552332907438 7.3205362396993525 5.495166107217361 0 0 0
30 1 10.729073793962828 9.024317561781404 5.444943756832434 -1 0 0
36 1 1.8395859397137422 8.934933161961649 7.107774764577909 0 0 0
66 1 3.698129487461643 8.905524287161686 5.483627090451646 0 0 0
72 1 5.461183473567683 9.02235855333956 7.366822197336073 0 0 0
102 1 7.1454250641960595 9.074088650814739 5.435475714963894 0 0 0
108 1 8.910880640643288 9.088015028524397 7.234390532964104 0 0 0
10 1 0.029395624358375717 1.718585277049778 8.902761564413026 0 0 0
11 1 1.7671245851846187 0.013283043376107345 8.907468855823792 0 0 0
23 1 1.7734525846464673 3.600772765744321 9.07269182271664 0 0 0
46 1 3.5024580259791773 1.8811634682105456 8.962689984100335 0 0 0
47 1 5.339635245249589 10.808020085307938 9.022106979860768 0 -1 0
59 1 5.507074514903889 3.6396471466201996 9.069611634586392 0 0 0
82 1 7.187124190192163 1.8775963869505856 8.976300909951133 0 0 0
83 1 8.96161947104267 10.783055757077586 8.937834980085691 0 -1 0
95 1 8.953497345938425 3.724612052522396 9.037741378745693 0 0 0
22 1 0.051722151489503806 5.44527296683895 9.052590284569602 0 0 0
35 1 1.8416204582435147 7.246299475487091 8.980949101510491 0 0 0
58 1 3.701544413070592 5.340039163268192 9.091926595408571 0 0 0
71 1 5.41776507626238 7.2778488032229225 9.231560706378309 0 0 0
94 1 7.242279434407319 5.475163779784751 9.102534385925258 0 0 0
107 1 9.082645557208354 7.151748491749615 9.08147862645028 0 0 0
34 1 10.783049193581594 9.018624887748281 9.025437770960151 -1 0 0
70 1 3.5190736338234365 8.951432117630967 8.978441947933309 0 0 0
106 1 7.145173160646326 9.037888839347973 9.174319868097719 0 0 0

Velocities

1 1.0305526750248137 0.5763099131321332 -3.6567381152666485
2 -0.849461331021838 -0.09476225016527842 -0.5005477551063988
3 -1.0937528079571024 2.245773441190166 -1.1409555972803704
4 0.11638386077223453 -3.024708866326365 -1.1395444777060741
5 -1.9556500186371137 -1.9488301796444278 4.933752184817128
8 0.158566039464294 0.4105765341459636 2.391571615320675
13 -1.8089421620127624 0.15224115429025264 -0.8424709774599118
15 1.3901015171475017 0.637103678383334 1.3073406916841723
17 0.42384264135699606 1.2450835723573 0.47451366526728367
37 0.8605520722379664 0.034477693481510224 -0.964547584052361
38 1.5567480099205229 2.322456789394067 1.0175166436711143
41 1.5441472694827696 1.0511671981899477 1.8327013546544988
49 -2.0664481825148364 -1.1292701228255957 0.07317729327030283
53 5.111692606415491 2.409817532322884 -0.5950926072502197
39 0.6136853024206421 1.872539422404255 -0.24171235768325605
40 0.02689922480259401 -2.432054245364666 -0.27623431547153754
44 -0.7261968722375393 0.4793882270411665 1.4775805228079801
51 -2.673362430253249 -2.027779774138407 -0.719570723960991
73 -0.5526293159549093 1.1610864422478038 -1.7589587557868813
74 -0.16231931521568352 -2.0740602473344656 -0.8413613585140964
77 0.9484450717846791 -0.9493362903714069 0.4300254298668163
85 -2.368666551792954 -1.026413869765028 0.45412991607631703
89 0.004562315245986374 -2.6230058990224947 -2.5935638283427593
75 -3.7455129280350867 -0.16576199021757748 1.2941967983803924
76 4.6815842043961675 -0.6611318404853301 -0.8132602507298653
80 -2.55971403630516 -1.6835723391984283 4.159764641387084
87 0.8378149675410742 -0.37978780945358237 4.035691828642876
14 -1.1785287925424541 -0.4756332206861312 1.3699347706152238
16 -3.3889182608493247 1.5602266129840154 3.7919573411437337
20 2.910655697535904 2.4570222356771803 2.193939998777524
25 1.2050693180505267 -0.06011472865214593 -0.3533516630295607
27 -1.1263282046228495 1.9663766275553325 1.622518222471458
29 -3.1952810000705902 -0.05716607513022603 0.9925608188241541
50 -0.8040266175093074 -3.4835870381306875 1.919670927833259
61 2.384373371290193 -2.5202768591951465 1.338025329301667
65 0.9670463274982519 0.32801701375116926 0.24681571742444144
52 0.10030439889295803 1.7095949559548822 1.779602014146706
56 -0.01682447466414517 3.176985377184506 -1.9712731428959656
63 0.6921989474170791 0.017286672785958176 -1.4069147840642562
86 -0.7620103469215769 -0.5499435388517588 -1.0513017668109084
97 1.7751044819590953 0.01915980539575968 -0.6984672487965529
101 0.09146883448676535 -3.168732644354139 -2.237115414028768
88 0.9863700630713718 3.423852378504987 -1.241994507950008
92 1.11156685326416 2.6765165985838637 0.014749952305349033
99 -3.189316474284908 2.586842091065069 2.059081971978344
26 3.462701275696981 2.091834975781743 0.7710776412752529
28 -1.9898665531345259 -0.7639527908755956 -1.06560730589897
32 1.2644493152776997 -2.588197976291752 -0.39952878253237195
62 -0.3047533206089254 -1.078765183130025 0.780953157487592
64 3.2585412563426654 -1.911707391346079 -1.4414378439841027
68 -0.397513319373296 0.20218828746910483 -0.39209855427624507
98 1.1327983894084603 -1.7073231926666141 2.234000331225462
100 -1.619188731018184 -1.4348512361117853 -0.9249031816344903
104 1.7077920232527384 -1.071029089788326 1.477481717508378
6 0.3943558758472913 -0.2224947796414992 -0.8926761078152481
7 2.2204984311567957 -0.057141157080906994 -1.4003162295854514
9 -0.9471578750718909 -6.305178761804951 0.37538652735461137
12 -0.39967690436960274 -1.7938919733608523 -3.497894930015811
19 0.10238876500726204 -2.266378878161931 0.40970887917869175
21 0.3475088175690255 1.3058766506350747 -1.2806700101567803
42 2.879338798525973 1.0288758389341888 -1.5101749478180768
45 0.2111425159156727 -0.6643915842750868 1.953005948553382
57 3.7019701979868027 1.7296959830242027 -0.5058000453681613
43 0.9325016325706422 2.823647668863839 -1.6255756339114416
48 1.1844606826487505 2.846847182379575 2.4659265010730675
55 -3.909021176919405 1.7397109193159999 1.5233484209344934
78 0.7450169021687053 -0.43882428767967574 0.026273180792885965
81 -1.942412023374744 -0.04112816003934376 0.8334958732704877
93 -0.781917807175233 -0.03435145543807283 1.3720494470479954
79 0.6856295427328136 3.2870125966235304 -1.3526736482386248
84 1.9495577200604748 1.8565623839055052 0.05093261528602691
91 -0.9839436295453025 1.2568119708814036 -3.3073636299134823
18 0.1140357796479894 3.402586313585807 0.9149259190421486
24 -0.41419308012052763 1.1061170500930184 -4.0096906681515865
31 -0.30464090181466286 -2.7543715029873 -0.4279217768315202
33 -2.2260837023893276 -3.171505601404869 -2.086360752246008
54 2.0557904346652704 -0.7914852972464528 -1.7494932526011178
69 0.027572780142532817 -3.7039507594713186 -1.7384464483459745
60 0.41391310855542146 -0.36995908575721514 0.3108373812014287
67 -1.4904998694522031 -0.45303379552441714 -1.776942900699305
90 -2.6653094367064525 0.1529616325508851 2.092204504453027
105 -1.0298220649441139 0.1679761560074673 2.8032608758100106
96 1.2880280440686052 -0.9815958642024577 -2.6404262646796526
103 -2.0771444657619567 2.5652762417682444 -0.4961599897740029
30 -3.048796302761523 0.9973985145001854 -0.9348239490108364
36 -1.4285315061635908 -1.0850126207269324 1.585656918724893
66 -0.9714659877148698 0.9855676821057935 -0.7486484529848438
72 0.7880454220299058 -1.8236120031168814 1.9582049594615707
102 -1.5007215765420534 -2.232946965589632 -2.9685751179192024
108 2.3051889990286205 -1.9063813889950134 3.3017513619512577
10 0.6483191935982978 -2.0576088506992134 0.32884330126184147
11 -1.6397837558170183 1.83718537516249 1.1575474921719344
23 0.3183997321484969 0.6820755135896716 -0.7572425660633038
46 -0.13076845001753354 1.7660811109020624 -1.012084964590378
47 -0.6258272717261223 0.9650791302350401 0.8133655489721816
59 0.4106276610065678 -0.24719846690061126 -1.769519510565353
82 -2.6672659471429716 1.4788060079966507 -0.322275219819493
83 0.17456757839116158 -1.0058671911505244 -1.901679575356321
95 -2.5136170303854692 -0.8476511079327925 -1.2928568906308098
22 0.5394172384557032 -3.000315696541051 -0.1827775830735848
35 -0.4844055215754215 4.827174170946706 -0.3442882996071701
58 3.2778299681613463 -1.5159532175017498 0.6724499749396847
71 2.738245332560539 2.269000721628857 1.6974211942002455
94 -0.5484071678792204 1.1233879253916088 -0.9499397079280084
107 1.6096950859304682 1.9915590678268837 2.3092113564206334
34 -1.864731527839165 -1.4599100567758263 0.3679254570261334
70 0.636853852863729 -0.5072796956051481 -2.082501361209176
106 0.07443860584512078 1.823977855006086 -0.9637128018694913
