ITEM: TIMESTEP
0
ITEM: NUMBER OF ATOMS
108
ITEM: BOX BOUNDS pp pp pp
0.0000000000000000e+00 1.0845000000000001e+01
0.0000000000000000e+00 1.0845000000000001e+01
0.0000000000000000e+00 1.0845000000000001e+01
ITEM: ATOMS id type element x y z
1 1 Cu 0 0 0
2 1 Cu 0 1.8075 1.8075
3 1 Cu 1.8075 0 1.8075
4 1 Cu 1.8075 1.8075 0
5 1 Cu 0 0 3.615
6 1 Cu 0 1.8075 5.4225
7 1 Cu 1.8075 0 5.4225
8 1 Cu 1.8075 1.8075 3.615
9 1 Cu 0 0 7.23
10 1 Cu 0 1.8075 9.0375
11 1 Cu 1.8075 0 9.0375
12 1 Cu 1.8075 1.8075 7.23
13 1 Cu 0 3.615 0
14 1 Cu 0 5.4225 1.8075
15 1 Cu 1.8075 3.615 1.8075
16 1 Cu 1.8075 5.4225 0
17 1 Cu 0 3.615 3.615
18 1 Cu 0 5.4225 5.4225
19 1 Cu 1.8075 3.615 5.4225
20 1 Cu 1.8075 5.4225 3.615
21 1 Cu 0 3.615 7.23
22 1 Cu 0 5.4225 9.0375
23 1 Cu 1.8075 3.615 9.0375
24 1 Cu 1.8075 5.4225 7.23
25 1 Cu 0 7.23 0
26 1 Cu 0 9.0375 1.8075
27 1 Cu 1.8075 7.23 1.8075
28 1 Cu 1.8075 9.0375 0
29 1 Cu 0 7.23 3.615
30 1 Cu 0 9.0375 5.4225
31 1 Cu 1.8075 7.23 5.4225
32 1 Cu 1.8075 9.0375 3.615
33 1 Cu 0 7.23 7.23
34 1 Cu 0 9.0375 9.0375
35 1 Cu 1.8075 7.23 9.0375
36 1 Cu 1.8075 9.0375 7.23
37 1 Cu 3.615 0 0
38 1 Cu 3.615 1.8075 1.8075
39 1 Cu 5.4225 0 1.8075
40 1 Cu 5.4225 1.8075 0
41 1 Cu 3.615 0 3.615
42 1 Cu 3.615 1.8075 5.4225
43 1 Cu 5.4225 0 5.4225
44 1 Cu 5.4225 1.8075 3.615
45 1 Cu 3.615 0 7.23
46 1 Cu 3.615 1.8075 9.0375
47 1 Cu 5.4225 0 9.0375
48 1 Cu 5.4225 1.8075 7.23
49 1 Cu 3.615 3.615 0
50 1 Cu 3.615 5.4225 1.8075
51 1 Cu 5.4225 3.615 1.8075
52 1 Cu 5.4225 5.4225 0
53 1 Cu 3.615 3.615 3.615
54 1 Cu 3.615 5.4225 5.4225
55 1 Cu 5.4225 3.615 5.4225
56 1 Cu 5.4225 5.4225 3.615
57 1 Cu 3.615 3.615 7.23
58 1 Cu 3.615 5.4225 9.0375
59 1 Cu 5.4225 3.615 9.0375
60 1 Cu 5.4225 5.4225 7.23
61 1 Cu 3.615 7.23 0
62 1 Cu 3.615 9.0375 1.8075
63 1 Cu 5.4225 7.23 1.8075
64 1 Cu 5.4225 9.0375 0
65 1 Cu 3.615 7.23 3.615
66 1 Cu 3.615 9.0375 5.4225
67 1 Cu 5.4225 7.23 5.4225
68 1 Cu 5.4225 9.0375 3.615
69 1 Cu 3.615 7.23 7.23
70 1 Cu 3.615 9.0375 9.0375
71 1 Cu 5.4225 7.23 9.0375
72 1 Cu 5.4225 9.0375 7.23
73 1 Cu 7.23 0 0
74 1 Cu 7.23 1.8075 1.8075
75 1 Cu 9.0375 0 1.8075
76 1 Cu 9.0375 1.8075 0
77 1 Cu 7.23 0 3.615
78 1 Cu 7.23 1.8075 5.4225
79 1 Cu 9.0375 0 5.4225
80 1 Cu 9.0375 1.8075 3.615
81 1 Cu 7.23 0 7.23
82 1 Cu 7.23 1.8075 9.0375
83 1 Cu 9.0375 0 9.0375
84 1 Cu 9.0375 1.8075 7.23
85 1 Cu 7.23 3.615 0
86 1 Cu 7.23 5.4225 1.8075
87 1 Cu 9.0375 3.615 1.8075
88 1 Cu 9.0375 5.4225 0
89 1 Cu 7.23 3.615 3.615
90 1 Cu 7.23 5.4225 5.4225
91 1 Cu 9.0375 3.615 5.4225
92 1 Cu 9.0375 5.4225 3.615
93 1 Cu 7.23 3.615 7.23
94 1 Cu 7.23 5.4225 9.0375
95 1 Cu 9.0375 3.615 9.0375
96 1 Cu 9.0375 5.4225 7.23
97 1 Cu 7.23 7.23 0
98 1 Cu 7.23 9.0375 1.8075
99 1 Cu 9.0375 7.23 1.8075
100 1 Cu 9.0375 9.0375 0
101 1 Cu 7.23 7.23 3.615
102 1 Cu 7.23 9.0375 5.4225
103 1 Cu 9.0375 7.23 5.4225
104 1 Cu 9.0375 9.0375 3.615
105 1 Cu 7.23 7.23 7.23
106 1 Cu 7.23 9.0375 9.0375
107 1 Cu 9.0375 7.23 9.0375
108 1 Cu 9.0375 9.0375 7.23
ITEM: TIMESTEP
50
ITEM: NUMBER OF ATOMS
108
ITEM: BOX BOUNDS pp pp pp
0.0000000000000000e+00 1.0845000000000001e+01
0.0000000000000000e+00 1.0845000000000001e+01
0.0000000000000000e+00 1.0845000000000001e+01
ITEM: ATOMS id type element x y z
1 1 Cu 0.0201188 0.0638318 -0.0493017
2 1 Cu -0.0231073 1.84879 1.76175
3 1 Cu 1.82357 0.0274301 1.75837
4 1 Cu 1.83129 1.79073 0.0510108
5 1 Cu 0.0167535 0.0288745 3.62326
6 1 Cu -0.102484 1.69085 5.43631
7 1 Cu 1.79667 0.0380779 5.37771
8 1 Cu 1.79608 1.85816 3.71162
9 1 Cu -0.010783 -0.0328189 7.36051
10 1 Cu 0.0284872 1.81769 9.1675
11 1 Cu 1.93617 -0.103642 9.10746
12 1 Cu 1.7531 1.79982 7.16579
13 1 Cu 0.000859146 3.58152 0.0380358
14 1 Cu -0.0662447 5.41026 1.81167
15 1 Cu 1.77774 3.77644 1.74933
16 1 Cu 1.83482 5.42958 -0.0860163
17 1 Cu 2.1501e-05 3.58498 3.56837
18 1 Cu 0.00749366 5.45231 5.48643
19 1 Cu 1.72882 3.56982 5.52261
20 1 Cu 1.73083 5.52667 3.63849
21 1 Cu -0.0701254 3.63741 7.21671
22 1 Cu -0.091868 5.41387 9.08963
23 1 Cu 1.76185 3.53614 9.06642
24 1 Cu 1.75025 5.39741 7.1898
25 1 Cu -0.0021216 7.21437 -0.0295355
26 1 Cu 0.130746 9.01252 1.79164
27 1 Cu 1.83463 7.21651 1.82012
28 1 Cu 1.92058 9.02789 0.0303778
29 1 Cu -0.0510649 7.20886 3.56374
30 1 Cu -0.0673302 9.07825 5.37396
31 1 Cu 1.78888 7.24799 5.4419
32 1 Cu 1.87125 9.11749 3.5587
33 1 Cu 0.0217609 7.2977 7.22614
34 1 Cu 0.034403 9.01635 9.12117
35 1 Cu 1.75281 7.15453 9.05247
36 1 Cu 1.85625 9.06842 7.26529
37 1 Cu 3.71513 -0.00591994 -0.000903054
38 1 Cu 3.64294 1.84758 1.88199
39 1 Cu 5.5652 -0.0151862 1.92533
40 1 Cu 5.38888 1.76258 -0.0482356
41 1 Cu 3.66594 -0.0191798 3.64882
42 1 Cu 3.77978 1.76161 5.38654
43 1 Cu 5.44974 -0.0259986 5.37821
44 1 Cu 5.52146 1.70145 3.63268
45 1 Cu 3.61654 0.0830825 7.17971
46 1 Cu 3.61054 1.82549 9.08215
47 1 Cu 5.45961 -0.169556 8.93474
48 1 Cu 5.4781 1.91206 7.26481
49 1 Cu 3.61267 3.69125 0.00420138
50 1 Cu 3.63205 5.42576 1.85803
51 1 Cu 5.37682 3.64383 1.8619
52 1 Cu 5.45444 5.5034 -0.0370863
53 1 Cu 3.53074 3.5785 3.65246
54 1 Cu 3.65049 5.53099 5.43109
55 1 Cu 5.36239 3.64351 5.44461
56 1 Cu 5.39171 5.42925 3.57769
57 1 Cu 3.70751 3.60822 7.2878
58 1 Cu 3.66637 5.49394 9.00287
59 1 Cu 5.51784 3.65376 8.98569
60 1 Cu 5.35984 5.44474 7.21238
61 1 Cu 3.73758 7.27332 -0.0493989
62 1 Cu 3.67597 9.01954 1.89465
63 1 Cu 5.41578 7.15938 1.77184
64 1 Cu 5.46232 9.03024 0.0393323
65 1 Cu 3.60988 7.21357 3.68506
66 1 Cu 3.59131 9.0952 5.41036
67 1 Cu 5.44388 7.21537 5.46178
68 1 Cu 5.29964 9.01575 3.64563
69 1 Cu 3.54915 7.32918 7.16529
70 1 Cu 3.65132 8.9537 8.89662
71 1 Cu 5.41733 7.34426 8.95768
72 1 Cu 5.5052 9.12298 7.13165
73 1 Cu 7.19597 -0.0594177 0.128216
74 1 Cu 7.25337 1.82171 1.87242
75 1 Cu 9.01534 -0.0154694 1.96077
76 1 Cu 8.96511 1.81097 -0.0165963
77 1 Cu 7.30537 0.0237747 3.69807
78 1 Cu 7.36296 1.80956 5.3444
79 1 Cu 9.08043 -0.0701642 5.32598
80 1 Cu 9.01894 1.89737 3.57423
81 1 Cu 7.23085 0.117369 7.16794
82 1 Cu 7.11274 1.73957 9.06572
83 1 Cu 9.04381 0.0156801 9.03444
84 1 Cu 9.01796 1.85894 7.2858
85 1 Cu 7.13385 3.4962 0.0332797
86 1 Cu 7.3215 5.54136 1.74741
87 1 Cu 9.00885 3.61576 1.89342
88 1 Cu 9.05053 5.32013 -0.056265
89 1 Cu 7.16271 3.65694 3.61332
90 1 Cu 7.16131 5.48498 5.49187
91 1 Cu 9.14127 3.538 5.33785
92 1 Cu 8.90945 5.37662 3.6408
93 1 Cu 7.25468 3.64594 7.20087
94 1 Cu 7.14955 5.50981 8.94603
95 1 Cu 8.95779 3.64769 9.05561
96 1 Cu 8.98784 5.30897 7.17859
97 1 Cu 7.22807 7.19472 -0.092659
98 1 Cu 7.23303 8.90231 1.93885
99 1 Cu 9.07104 7.15456 1.81892
100 1 Cu 8.92931 8.98411 -0.0513373
101 1 Cu 7.14716 7.26783 3.65494
102 1 Cu 7.18317 9.01078 5.32
103 1 Cu 9.1078 7.12112 5.41995
104 1 Cu 9.0407 8.96376 3.62304
105 1 Cu 7.19895 7.29346 7.11664
106 1 Cu 7.19034 8.98557 8.96364
107 1 Cu 8.97577 7.11352 8.98939
108 1 Cu 9.0403 9.05826 7.26205
ITEM: TIMESTEP
100
ITEM: NUMBER OF ATOMS
108
ITEM: BOX BOUNDS pp pp pp
0.0000000000000000e+00 1.0845000000000001e+01
0.0000000000000000e+00 1.0845000000000001e+01
0.0000000000000000e+00 1.0845000000000001e+01
ITEM: ATOMS id type element x y z
1 1 Cu -0.0401389 -0.0658105 0.0569868
2 1 Cu 0.00195214 1.801 1.7877
3 1 Cu 1.88781 0.0691701 1.80445
4 1 Cu 1.96062 1.84174 0.0853957
5 1 Cu 0.0535988 0.0242483 3.4871
6 1 Cu -0.0905279 1.70344 5.49367
7 1 Cu 1.7857 0.0150227 5.4409
8 1 Cu 1.77633 1.83011 3.63364
9 1 Cu 0.027687 -0.0173453 7.36572
10 1 Cu 0.00309116 1.81544 9.0615
11 1 Cu 1.93669 -0.00281509 9.11095
12 1 Cu 1.77039 1.75788 7.26306
13 1 Cu -0.0442497 3.6177 0.0243272
14 1 Cu -0.0632889 5.42127 1.77672
15 1 Cu 1.82381 3.71014 1.80792
16 1 Cu 1.8318 5.47229 -0.0583265
17 1 Cu 0.0927146 3.65862 3.61416
18 1 Cu -0.00833349 5.40436 5.39679
19 1 Cu 1.78078 3.59252 5.47778
20 1 Cu 1.75999 5.42422 3.69554
21 1 Cu -0.0671751 3.54646 7.32815
22 1 Cu -0.0256034 5.34517 8.96985
23 1 Cu 1.80421 3.62239 9.00755
24 1 Cu 1.81844 5.39363 7.30523
25 1 Cu -0.0430673 7.20219 0.0324578
26 1 Cu 0.019532 9.05303 1.72264
27 1 Cu 1.87895 7.16933 1.75474
28 1 Cu 1.97849 8.97645 0.0199404
29 1 Cu 0.00390867 7.22799 3.60189
30 1 Cu 0.0588302 9.03891 5.41019
31 1 Cu 1.70569 7.35909 5.39394
32 1 Cu 1.81027 9.05213 3.60786
33 1 Cu -0.0192505 7.29631 7.28029
34 1 Cu 0.00744894 8.99864 9.16241
35 1 Cu 1.80969 7.22263 8.99563
36 1 Cu 1.72111 9.13958 7.2054
37 1 Cu 3.78787 -0.0810629 0.0784001
38 1 Cu 3.64965 1.83553 1.87602
39 1 Cu 5.50254 -0.0656939 1.92215
40 1 Cu 5.36517 1.74441 0.0556066
41 1 Cu 3.59594 0.104028 3.57032
42 1 Cu 3.67923 1.83408 5.42253
43 1 Cu 5.52787 0.0385732 5.41261
44 1 Cu 5.49959 1.8634 3.65178
45 1 Cu 3.65497 0.111033 7.20479
46 1 Cu 3.65094 1.81106 9.03441
47 1 Cu 5.40585 -0.0675901 8.99876
48 1 Cu 5.48729 1.80341 7.19548
49 1 Cu 3.69485 3.67966 -0.0390881
50 1 Cu 3.58104 5.46956 1.81937
51 1 Cu 5.39618 3.63787 1.82758
52 1 Cu 5.45406 5.40798 -0.0572393
53 1 Cu 3.51779 3.68431 3.71342
54 1 Cu 3.5182 5.38747 5.44672
55 1 Cu 5.41481 3.6604 5.37676
56 1 Cu 5.40411 5.44053 3.63718
57 1 Cu 3.53362 3.59982 7.26888
58 1 Cu 3.63389 5.48862 8.96673
59 1 Cu 5.46143 3.68581 9.0772
60 1 Cu 5.36699 5.50148 7.21069
61 1 Cu 3.65711 7.2528 -0.0392011
62 1 Cu 3.68357 9.02699 1.79179
63 1 Cu 5.41616 7.20265 1.83079
64 1 Cu 5.50872 9.02043 0.0650198
65 1 Cu 3.57379 7.24258 3.65567
66 1 Cu 3.5533 9.1049 5.46301
67 1 Cu 5.31004 7.28403 5.42021
68 1 Cu 5.41968 8.96669 3.66982
69 1 Cu 3.56774 7.23825 7.13794
70 1 Cu 3.65738 9.03221 8.97491
71 1 Cu 5.44395 7.31689 8.85348
72 1 Cu 5.43649 9.08601 7.01932
73 1 Cu 7.24828 -0.0704611 0.0931131
74 1 Cu 7.21189 1.8222 1.83454
75 1 Cu 9.07083 -0.0912569 1.83066
76 1 Cu 8.93907 1.77434 0.0475206
77 1 Cu 7.31193 -0.0902461 3.64153
78 1 Cu 7.31192 1.89901 5.42586
79 1 Cu 9.04519 -0.054362 5.4493
80 1 Cu 9.09553 1.80702 3.54989
81 1 Cu 7.32654 0.0581933 7.10157
82 1 Cu 7.17863 1.68273 9.09739
83 1 Cu 8.93293 -0.00686449 9.10442
84 1 Cu 9.0442 1.81638 7.33754
85 1 Cu 7.12173 3.61619 0.0713065
86 1 Cu 7.20262 5.43169 1.74399
87 1 Cu 8.95285 3.66323 1.76834
88 1 Cu 8.92129 5.33251 -0.00344074
89 1 Cu 7.11319 3.69676 3.65211
90 1 Cu 7.16576 5.37602 5.42177
91 1 Cu 9.08534 3.64827 5.37195
92 1 Cu 8.96319 5.41428 3.69733
93 1 Cu 7.22687 3.58618 7.124
94 1 Cu 7.15013 5.47007 8.90575
95 1 Cu 8.86441 3.54836 9.08228
96 1 Cu 9.01576 5.39787 7.17141
97 1 Cu 7.24038 7.24085 -0.0713614
98 1 Cu 7.229 8.91026 1.88803
99 1 Cu 9.07332 7.24583 1.74027
100 1 Cu 8.9904 9.00117 0.0156885
101 1 Cu 7.1713 7.1055 3.68934
102 1 Cu 7.31982 9.03635 5.35398
103 1 Cu 9.04109 7.21473 5.44342
104 1 Cu 9.09569 8.89674 3.57933
105 1 Cu 7.29218 7.2879 7.14
106 1 Cu 7.30599 9.05848 8.9601
107 1 Cu 9.02921 7.17713 8.91313
108 1 Cu 9.01684 9.0557 7.21498
ITEM: TIMESTEP
150
ITEM: NUMBER OF ATOMS
108
ITEM: BOX BOUNDS pp pp pp
0.0000000000000000e+00 1.0845000000000001e+01
0.0000000000000000e+00 1.0845000000000001e+01
0.0000000000000000e+00 1.0845000000000001e+01
ITEM: ATOMS id type element x y z
1 1 Cu 0.0433207 -0.0304855 0.0376035
2 1 Cu 0.0502823 1.83385 1.74785
3 1 Cu 1.88902 -0.026639 1.77467
4 1 Cu 1.9408 1.88441 -0.0188422
5 1 Cu 0.0237128 -0.0700355 3.53746
6 1 Cu 0.0264658 1.85505 5.46665
7 1 Cu 1.77412 0.0651981 5.43848
8 1 Cu 1.76649 1.81233 3.56309
9 1 Cu -0.0558538 0.0118386 7.31827
10 1 Cu -0.0252088 1.74724 9.1409
11 1 Cu 1.80386 0.111835 9.16259
12 1 Cu 1.82515 1.76442 7.35538
13 1 Cu -0.0379401 3.63439 -0.0630479
14 1 Cu 0.0119903 5.4181 1.79643
15 1 Cu 1.87561 3.54897 1.82343
16 1 Cu 1.77956 5.42037 -0.0217363
17 1 Cu -0.00616261 3.63255 3.62035
18 1 Cu 0.0261897 5.41596 5.46415
19 1 Cu 1.72263 3.55033 5.47091
20 1 Cu 1.84102 5.40692 3.61712
21 1 Cu -0.00521713 3.52174 7.28753
22 1 Cu -0.0199473 5.37136 9.0002
23 1 Cu 1.87106 3.65336 9.10075
24 1 Cu 1.75478 5.46798 7.25457
25 1 Cu -0.0152739 7.13521 -0.0472243
26 1 Cu 0.0211247 8.96904 1.75846
27 1 Cu 1.77442 7.21946 1.77985
28 1 Cu 1.80003 9.02577 -0.0220458
29 1 Cu 0.0866168 7.19467 3.56993
30 1 Cu -0.0069907 9.11935 5.42149
31 1 Cu 1.76628 7.23454 5.45285
32 1 Cu 1.7666 9.01903 3.54612
33 1 Cu -0.00445896 7.19467 7.23483
34 1 Cu -0.0213207 9.05948 9.10282
35 1 Cu 1.85372 7.36921 8.98275
36 1 Cu 1.75056 9.1105 7.29382
37 1 Cu 3.67948 -0.0627676 0.0768781
38 1 Cu 3.68119 1.88822 1.84203
39 1 Cu 5.38438 -0.0430918 1.89286
40 1 Cu 5.45523 1.79455 0.128136
41 1 Cu 3.60406 0.0620424 3.6456
42 1 Cu 3.46234 1.89231 5.4473
43 1 Cu 5.48452 0.123173 5.30976
44 1 Cu 5.37612 1.95423 3.64214
45 1 Cu 3.65227 -0.0101125 7.23762
46 1 Cu 3.73023 1.80977 9.02173
47 1 Cu 5.45017 0.0627575 9.07861
48 1 Cu 5.44165 1.75163 7.18405
49 1 Cu 3.669 3.63206 -0.0383612
50 1 Cu 3.62478 5.43378 1.76211
51 1 Cu 5.35719 3.65762 1.81879
52 1 Cu 5.39629 5.49459 -0.0354096
53 1 Cu 3.63121 3.68715 3.601
54 1 Cu 3.4476 5.33862 5.4955
55 1 Cu 5.35413 3.62787 5.47136
56 1 Cu 5.2754 5.46189 3.68171
57 1 Cu 3.55017 3.56783 7.21015
58 1 Cu 3.62045 5.43434 9.02417
59 1 Cu 5.37618 3.53802 8.98362
60 1 Cu 5.4085 5.41219 7.12162
61 1 Cu 3.66355 7.16285 -0.0607133
62 1 Cu 3.63173 8.9958 1.82809
63 1 Cu 5.40424 7.23893 1.86585
64 1 Cu 5.50912 8.9522 -0.058371
65 1 Cu 3.51156 7.25659 3.59567
66 1 Cu 3.53389 9.15537 5.39655
67 1 Cu 5.30725 7.21444 5.37318
68 1 Cu 5.52388 9.03407 3.68749
69 1 Cu 3.5245 7.222 7.18892
70 1 Cu 3.64149 9.12345 9.04209
71 1 Cu 5.46895 7.28245 8.92954
72 1 Cu 5.40454 9.05279 7.17012
73 1 Cu 7.20237 -0.0371186 0.0224547
74 1 Cu 7.181 1.77009 1.84036
75 1 Cu 9.01794 -0.0801188 1.69667
76 1 Cu 9.04825 1.77363 0.108918
77 1 Cu 7.30611 -0.0554426 3.52653
78 1 Cu 7.26528 1.8609 5.38106
79 1 Cu 9.14431 0.0446362 5.4365
80 1 Cu 9.10006 1.74429 3.59183
81 1 Cu 7.26977 -0.0921484 7.22963
82 1 Cu 7.17946 1.77349 9.09131
83 1 Cu 9.04274 -0.0285659 9.13109
84 1 Cu 9.02556 1.72388 7.28086
85 1 Cu 7.16212 3.65784 -0.0142215
86 1 Cu 7.06421 5.38368 1.88525
87 1 Cu 8.99911 3.6305 1.78744
88 1 Cu 8.90653 5.51494 -0.0832947
89 1 Cu 7.32173 3.63679 3.56848
90 1 Cu 7.22546 5.37917 5.45031
91 1 Cu 9.01735 3.65676 5.46466
92 1 Cu 9.16207 5.4827 3.55509
93 1 Cu 7.17407 3.57296 7.25366
94 1 Cu 7.26669 5.38542 8.95907
95 1 Cu 8.88784 3.52354 9.09351
96 1 Cu 9.07703 5.46143 7.21824
97 1 Cu 7.2108 7.24022 -0.0520956
98 1 Cu 7.2427 8.99376 1.7999
99 1 Cu 8.96087 7.20129 1.77505
100 1 Cu 9.07359 8.99978 0.0157121
101 1 Cu 7.29357 7.08518 3.64392
102 1 Cu 7.36099 9.00252 5.41604
103 1 Cu 9.07303 7.30365 5.42712
104 1 Cu 9.13811 8.99128 3.57499
105 1 Cu 7.2448 7.20773 7.17565
106 1 Cu 7.2467 9.10885 9.00204
107 1 Cu 9.08971 7.28733 9.05237
108 1 Cu 9.15878 9.06852 7.20909
ITEM: TIMESTEP
200
ITEM: NUMBER OF ATOMS
108
ITEM: BOX BOUNDS pp pp pp
0.0000000000000000e+00 1.0845000000000001e+01
0.0000000000000000e+00 1.0845000000000001e+01
0.0000000000000000e+00 1.0845000000000001e+01
ITEM: ATOMS id type element x y z
1 1 Cu 0.112168 0.0816329 0.0558669
2 1 Cu 0.0630523 1.84026 1.7397
3 1 Cu 1.8175 -0.0603108 1.75734
4 1 Cu 1.80263 1.83733 -0.0482046
5 1 Cu -0.00591262 -0.0168622 3.58665
6 1 Cu 0.0480976 1.88143 5.37993
7 1 Cu 1.71647 0.0727455 5.42374
8 1 Cu 1.78493 1.78257 3.55008
9 1 Cu 0.00462307 0.11108 7.22668
10 1 Cu -0.0512688 1.82594 9.17909
11 1 Cu 1.77268 0.0149681 9.08788
12 1 Cu 1.81616 1.80261 7.38107
13 1 Cu -0.0176939 3.66267 -0.0463786
14 1 Cu 0.0927843 5.34332 1.733
15 1 Cu 1.81529 3.57995 1.74967
16 1 Cu 1.81033 5.36515 0.00507825
17 1 Cu -0.129607 3.55462 3.58599
18 1 Cu 0.0184724 5.40565 5.46765
19 1 Cu 1.69783 3.63477 5.41408
20 1 Cu 1.83786 5.38125 3.4955
21 1 Cu 0.0113689 3.58511 7.29847
22 1 Cu -0.0431395 5.44865 9.08117
23 1 Cu 1.84538 3.59333 9.08119
24 1 Cu 1.71054 5.40541 7.27831
25 1 Cu 0.0647337 7.16839 -0.0964569
26 1 Cu -0.00695692 8.89204 1.79847
27 1 Cu 1.77782 7.23534 1.73079
28 1 Cu 1.68649 9.04384 -0.0189283
29 1 Cu 0.0742894 7.2027 3.62291
30 1 Cu 0.0171323 9.08787 5.41552
31 1 Cu 1.85783 7.18697 5.46926
32 1 Cu 1.78662 9.07834 3.58567
33 1 Cu 0.0515391 7.24438 7.21659
34 1 Cu 0.0375678 9.11459 8.98413
35 1 Cu 1.81316 7.28061 9.08579
36 1 Cu 1.84665 9.09725 7.30802
37 1 Cu 3.55921 0.0623494 -0.0183932
38 1 Cu 3.61642 1.77922 1.77787
39 1 Cu 5.3345 -0.00991853 1.83297
40 1 Cu 5.48576 1.8621 0.0432777
41 1 Cu 3.60344 -0.0349164 3.67908
42 1 Cu 3.45344 1.80411 5.41277
43 1 Cu 5.3923 0.0543273 5.31102
44 1 Cu 5.35603 1.87076 3.62079
45 1 Cu 3.5992 -0.0726416 7.21824
46 1 Cu 3.67761 1.74033 9.09239
47 1 Cu 5.47017 0.0495262 9.10298
48 1 Cu 5.39551 1.72173 7.15502
49 1 Cu 3.65027 3.62113 0.0167051
50 1 Cu 3.61606 5.42642 1.72785
51 1 Cu 5.43626 3.68841 1.80662
52 1 Cu 5.44599 5.50254 -0.0492643
53 1 Cu 3.59662 3.57245 3.55961
54 1 Cu 3.53763 5.42537 5.48043
55 1 Cu 5.36941 3.54613 5.48758
56 1 Cu 5.27968 5.41907 3.71814
57 1 Cu 3.62469 3.60111 7.2624
58 1 Cu 3.63569 5.3909 8.99805
59 1 Cu 5.39163 3.55024 8.92913
60 1 Cu 5.39866 5.36115 7.2031
61 1 Cu 3.58398 7.26212 -0.0374032
62 1 Cu 3.59941 8.9638 1.85077
63 1 Cu 5.41545 7.28274 1.86965
64 1 Cu 5.33929 8.99612 -0.0792191
65 1 Cu 3.53046 7.24359 3.62304
66 1 Cu 3.58522 9.05467 5.34281
67 1 Cu 5.41401 7.19022 5.41836
68 1 Cu 5.49385 9.06063 3.66512
69 1 Cu 3.62324 7.32 7.27688
70 1 Cu 3.62992 9.12789 9.0927
71 1 Cu 5.41034 7.15806 9.02102
72 1 Cu 5.40222 9.03423 7.29321
73 1 Cu 7.14577 0.00647799 0.00219068
74 1 Cu 7.221 1.797 1.86769
75 1 Cu 9.03832 0.0228945 1.75697
76 1 Cu 9.04559 1.83441 0.050922
77 1 Cu 7.28664 0.0606968 3.57171
78 1 Cu 7.24691 1.73278 5.32517
79 1 Cu 9.10676 0.108922 5.32761
80 1 Cu 9.09428 1.77458 3.58049
81 1 Cu 7.16095 -0.0752998 7.29992
82 1 Cu 7.23495 1.84483 9.05321
83 1 Cu 9.1264 0.0142369 9.12133
84 1 Cu 8.93538 1.74946 7.19975
85 1 Cu 7.20863 3.63556 -0.0339669
86 1 Cu 7.12874 5.43516 1.91083
87 1 Cu 9.1054 3.62487 1.76121
88 1 Cu 9.05009 5.49696 -0.0222827
89 1 Cu 7.4334 3.58332 3.59456
90 1 Cu 7.3249 5.43596 5.41053
91 1 Cu 9.03586 3.57106 5.52655
92 1 Cu 9.2099 5.43642 3.53887
93 1 Cu 7.22611 3.58229 7.33749
94 1 Cu 7.23743 5.39555 9.02642
95 1 Cu 9.14239 3.58675 9.02238
96 1 Cu 9.07131 5.41619 7.30652
97 1 Cu 7.16815 7.20229 -0.00883274
98 1 Cu 7.21305 9.05632 1.74998
99 1 Cu 8.95252 7.11863 1.81352
100 1 Cu 9.06626 8.98087 -0.0103357
101 1 Cu 7.30745 7.29075 3.63513
102 1 Cu 7.23177 9.05122 5.44651
103 1 Cu 9.1971 7.19979 5.3636
104 1 Cu 9.04941 9.10785 3.57091
105 1 Cu 7.18911 7.20327 7.24179
106 1 Cu 7.19271 8.99019 9.04835
107 1 Cu 9.00516 7.34079 9.07548
108 1 Cu 9.14423 9.0204 7.2922
ITEM: TIMESTEP
250
ITEM: NUMBER OF ATOMS
108
ITEM: BOX BOUNDS pp pp pp
0.0000000000000000e+00 1.0845000000000001e+01
0.0000000000000000e+00 1.0845000000000001e+01
0.0000000000000000e+00 1.0845000000000001e+01
ITEM: ATOMS id type element x y z
1 1 Cu -0.0807847 -0.000199042 0.0699706
2 1 Cu -0.00171951 1.81994 1.81034
3 1 Cu 1.76058 -0.035696 1.8506
4 1 Cu 1.73957 1.80721 0.0124461
5 1 Cu 0.0214091 0.0845275 3.5325
6 1 Cu -0.0270475 1.79575 5.38839
7 1 Cu 1.76689 -0.0359635 5.4295
8 1 Cu 1.80991 1.7818 3.5569
9 1 Cu 0.0352482 0.145566 7.15949
10 1 Cu -0.00581237 1.86567 8.97063
11 1 Cu 1.81971 -0.0733762 8.91334
12 1 Cu 1.81155 1.86585 7.23059
13 1 Cu 0.0499134 3.6279 0.0165848
14 1 Cu 0.053445 5.43642 1.73348
15 1 Cu 1.78464 3.62743 1.73333
16 1 Cu 1.94004 5.38574 -0.0738435
17 1 Cu 0.0191538 3.58379 3.57568
18 1 Cu -0.0140845 5.34263 5.37421
19 1 Cu 1.87753 3.74022 5.35212
20 1 Cu 1.77058 5.35759 3.54109
21 1 Cu 0.0199654 3.61264 7.25204
22 1 Cu 0.0210802 5.5131 9.05096
23 1 Cu 1.78251 3.58052 9.02
24 1 Cu 1.84984 5.34032 7.34557
25 1 Cu -0.00157258 7.31414 0.016399
26 1 Cu -0.13411 9.01028 1.83165
27 1 Cu 1.8683 7.18918 1.75464
28 1 Cu 1.79119 9.06753 0.0211083
29 1 Cu 0.0640399 7.24867 3.6506
30 1 Cu 0.0661165 8.9873 5.45144
31 1 Cu 1.83358 7.24289 5.42789
32 1 Cu 1.79091 9.06825 3.69146
33 1 Cu 0.0605433 7.32939 7.28708
34 1 Cu 0.0486169 9.07928 8.97132
35 1 Cu 1.81959 7.08959 9.06437
36 1 Cu 1.86201 9.03216 7.13378
37 1 Cu 3.53606 0.037029 -0.021933
38 1 Cu 3.52959 1.69896 1.73952
39 1 Cu 5.38702 0.0030272 1.74429
40 1 Cu 5.42419 1.88304 -0.0521193
41 1 Cu 3.54254 -0.0365096 3.54224
42 1 Cu 3.60705 1.74489 5.4125
43 1 Cu 5.34446 -0.118787 5.49517
44 1 Cu 5.42972 1.73281 3.55715
45 1 Cu 3.58235 0.0187055 7.17533
46 1 Cu 3.55416 1.75962 9.05924
47 1 Cu 5.38815 -0.0260664 9.03965
48 1 Cu 5.37627 1.73513 7.19468
49 1 Cu 3.67994 3.58856 0.0151563
50 1 Cu 3.64843 5.47774 1.79223
51 1 Cu 5.53519 3.63269 1.84405
52 1 Cu 5.43841 5.32657 0.022852
53 1 Cu 3.49785 3.52812 3.61567
54 1 Cu 3.66776 5.44543 5.4458
55 1 Cu 5.50861 3.5299 5.36475
56 1 Cu 5.49559 5.3402 3.66726
57 1 Cu 3.5681 3.57816 7.23681
58 1 Cu 3.59207 5.39651 9.01531
59 1 Cu 5.44646 3.64879 9.08455
60 1 Cu 5.4492 5.41874 7.26716
61 1 Cu 3.52162 7.31592 0.01628
62 1 Cu 3.5699 9.07146 1.78585
63 1 Cu 5.42091 7.23718 1.84376
64 1 Cu 5.27559 9.115 0.0885293
65 1 Cu 3.64094 7.17611 3.63893
66 1 Cu 3.67444 8.89462 5.45356
67 1 Cu 5.51805 7.25346 5.50278
68 1 Cu 5.37172 9.03824 3.56617
69 1 Cu 3.68842 7.28702 7.31837
70 1 Cu 3.55168 9.03774 9.08546
71 1 Cu 5.33907 7.13204 9.08247
72 1 Cu 5.40477 9.04044 7.28734
73 1 Cu 7.24782 0.0229882 0.019141
74 1 Cu 7.25068 1.89582 1.79286
75 1 Cu 9.10505 0.0624573 1.80636
76 1 Cu 8.92997 1.86668 -0.0464071
77 1 Cu 7.14605 0.0177667 3.62184
78 1 Cu 7.17254 1.74252 5.42775
79 1 Cu 8.98204 -0.0495419 5.4167
80 1 Cu 9.06942 1.85242 3.51364
81 1 Cu 7.2154 0.0395974 7.2519
82 1 Cu 7.32353 1.81973 9.02302
83 1 Cu 9.00365 0.0204275 9.06244
84 1 Cu 8.97522 1.79235 7.20966
85 1 Cu 7.31498 3.67513 0.0127046
86 1 Cu 7.32149 5.473 1.85894
87 1 Cu 9.06125 3.64955 1.69687
88 1 Cu 9.09265 5.35229 0.0703745
89 1 Cu 7.27199 3.61563 3.71617
90 1 Cu 7.343 5.44417 5.34902
91 1 Cu 9.08327 3.54762 5.49694
92 1 Cu 9.02927 5.33988 3.65583
93 1 Cu 7.29423 3.62752 7.16792
94 1 Cu 7.21464 5.4442 9.09402
95 1 Cu 9.15401 3.69084 9.01045
96 1 Cu 9.0241 5.44288 7.29042
97 1 Cu 7.19617 7.22047 0.0885714
98 1 Cu 7.18917 9.10521 1.74181
99 1 Cu 9.1155 7.21243 1.79778
100 1 Cu 9.04522 9.07116 0.0348917
101 1 Cu 7.21782 7.4097 3.68084
102 1 Cu 7.19053 9.12605 5.51101
103 1 Cu 9.0988 7.18254 5.4175
104 1 Cu 8.9437 9.09701 3.59772
105 1 Cu 7.24495 7.23535 7.23561
106 1 Cu 7.18668 8.94771 9.13493
107 1 Cu 8.97642 7.19565 8.98133
108 1 Cu 8.91421 9.06524 7.21001
ITEM: TIMESTEP
300
ITEM: NUMBER OF ATOMS
108
ITEM: BOX BOUNDS pp pp pp
0.0000000000000000e+00 1.0845000000000001e+01
0.0000000000000000e+00 1.0845000000000001e+01
0.0000000000000000e+00 1.0845000000000001e+01
ITEM: ATOMS id type element x y z
1 1 Cu -0.145563 -0.0484611 -0.125071
2 1 Cu -0.0690217 1.85573 1.7831
3 1 Cu 1.66976 -0.0144463 1.8192
4 1 Cu 1.71775 1.69493 -0.0221529
5 1 Cu -0.045457 0.000268415 3.70052
6 1 Cu -0.0241104 1.77835 5.37899
7 1 Cu 1.92902 -0.0622111 5.36418
8 1 Cu 1.80705 1.82701 3.68112
9 1 Cu -0.0742489 -0.0996167 7.18637
10 1 Cu 0.0293956 1.71859 8.90276
11 1 Cu 1.76712 0.013283 8.90747
12 1 Cu 1.81612 1.86313 6.94989
13 1 Cu 0.0564679 3.56533 -0.0406014
14 1 Cu -0.0254463 5.56707 1.84914
15 1 Cu 1.87692 3.63855 1.79723
16 1 Cu 1.88058 5.4182 -0.012195
17 1 Cu 0.16784 3.65999 3.57811
18 1 Cu 0.0083425 5.42796 5.41831
19 1 Cu 1.94301 3.62586 5.42659
20 1 Cu 1.80857 5.49575 3.66069
21 1 Cu 0.04625 3.67358 7.07745
22 1 Cu 0.0517222 5.44527 9.05259
23 1 Cu 1.77345 3.60077 9.07269
24 1 Cu 1.91139 5.43633 7.13518
25 1 Cu -0.0532893 7.36779 0.0399796
26 1 Cu 0.000439982 9.18739 1.92689
27 1 Cu 1.81393 7.25036 1.92251
28 1 Cu 1.78639 9.10808 0.0191748
29 1 Cu -0.0348055 7.23977 3.60506
30 1 Cu -0.115926 9.02432 5.44494
31 1 Cu 1.78908 7.08438 5.42192
32 1 Cu 1.83124 8.93391 3.65935
33 1 Cu -0.0276612 7.2084 7.24727
34 1 Cu -0.0619508 9.01862 9.02544
35 1 Cu 1.84162 7.2463 8.98095
36 1 Cu 1.83959 8.93493 7.10777
37 1 Cu 3.54939 -0.0360225 -0.0338356
38 1 Cu 3.58013 1.83314 1.77928
39 1 Cu 5.47329 0.116229 1.70566
40 1 Cu 5.42558 1.76316 -0.0788757
41 1 Cu 3.6034 0.0055423 3.57558
42 1 Cu 3.76668 1.77364 5.34734
43 1 Cu 5.34542 -0.133436 5.50362
44 1 Cu 5.39367 1.68742 3.54885
45 1 Cu 3.57607 0.0404342 7.23268
46 1 Cu 3.50246 1.88116 8.96269
47 1 Cu 5.33964 -0.0369799 9.02211
48 1 Cu 5.41776 1.90967 7.37044
49 1 Cu 3.59447 3.52547 0.0197635
50 1 Cu 3.70412 5.36193 1.9243
51 1 Cu 5.44604 3.53015 1.8979
52 1 Cu 5.38923 5.32498 0.163256
53 1 Cu 3.69896 3.60193 3.56496
54 1 Cu 3.80869 5.43404 5.41269
55 1 Cu 5.42022 3.61794 5.3731
56 1 Cu 5.62016 5.42595 3.54931
57 1 Cu 3.70433 3.56719 7.15829
58 1 Cu 3.70154 5.34004 9.09193
59 1 Cu 5.50707 3.63965 9.06961
60 1 Cu 5.52231 5.40866 7.22238
61 1 Cu 3.67433 7.19709 0.045101
62 1 Cu 3.51184 9.11162 1.82492
63 1 Cu 5.42931 7.15433 1.77356
64 1 Cu 5.43209 9.08107 0.0864954
65 1 Cu 3.73375 7.13728 3.62109
66 1 Cu 3.69813 8.90552 5.48363
67 1 Cu 5.52074 7.24318 5.47063
68 1 Cu 5.266 9.05965 3.51324
69 1 Cu 3.61609 7.07301 7.24504
70 1 Cu 3.51907 8.95143 8.97844
71 1 Cu 5.41777 7.27785 9.23156
72 1 Cu 5.46118 9.02236 7.36682
73 1 Cu 7.2841 0.0607488 -0.0205059
74 1 Cu 7.24686 1.84828 1.72547
75 1 Cu 8.92855 0.0606571 1.86729
76 1 Cu 9.09058 1.83496 -0.10219
77 1 Cu 7.09521 -0.078559 3.60526
78 1 Cu 7.17734 1.76184 5.49991
79 1 Cu 8.99928 -0.075414 5.44748
80 1 Cu 8.91892 1.86996 3.64387
81 1 Cu 7.21551 0.0864682 7.27549
82 1 Cu 7.18712 1.8776 8.9763
83 1 Cu 8.96162 -0.0619442 8.93783
84 1 Cu 9.14033 1.83645 7.24437
85 1 Cu 7.26827 3.6807 -0.00262365
86 1 Cu 7.38838 5.48191 1.8366
87 1 Cu 9.03266 3.61347 1.90115
88 1 Cu 9.09445 5.47323 -0.0356119
89 1 Cu 7.16351 3.53089 3.6627
90 1 Cu 7.20653 5.45694 5.46192
91 1 Cu 9.08772 3.5922 5.33449
92 1 Cu 8.97859 5.38097 3.64517
93 1 Cu 7.22789 3.6768 7.11137
94 1 Cu 7.24228 5.47516 9.10253
95 1 Cu 8.9535 3.72461 9.03774
96 1 Cu 9.05898 5.46828 7.11988
97 1 Cu 7.2775 7.24068 0.105304
98 1 Cu 7.24068 9.07963 1.82785
99 1 Cu 9.10726 7.33656 1.89678
100 1 Cu 8.96183 9.07601 -0.0255164
101 1 Cu 7.16429 7.28227 3.61696
102 1 Cu 7.14543 9.07409 5.43548
103 1 Cu 8.94255 7.32054 5.49517
104 1 Cu 8.99625 9.044 3.68067
105 1 Cu 7.24585 7.23563 7.25981
106 1 Cu 7.14517 9.03789 9.17432
107 1 Cu 9.08265 7.15175 9.08148
108 1 Cu 8.91088 9.08802 7.23439
