       3
 i =        0, time =        0.000, E =       -17.2193991294
  O         3.0000000000        3.0000000000        3.2981545000
  H         3.0000000000        3.7632390000        2.7018455000
  H         3.0000000000        2.2367610000        2.7018455000
       3
 i =        1, time =        0.500, E =       -17.2193358630
  O         3.0003480348        3.0003258882        3.2988801486
  H         3.0022144056        3.7621048776        2.6986192729
  H         2.9922611113        2.2327221795        2.6932541080
       3
 i =        2, time =        1.000, E =       -17.2191602423
  O         3.0006763519        3.0005893664        3.2994907915
  H         3.0043132591        3.7611376310        2.6955977718
  H         2.9849359567        2.2294987023        2.6857094097
       3
 i =        3, time =        1.500, E =       -17.2189453212
  O         3.0010017772        3.0007710909        3.2999814629
  H         3.0064194328        3.7602202120        2.6927137701
  H         2.9776196280        2.2275075648        2.6793186234
       3
 i =        4, time =        2.000, E =       -17.2187891368
  O         3.0013002773        3.0008377582        3.3002905864
  H         3.0083948213        3.7593584631        2.6902596414
  H         2.9708227641        2.2272696224        2.6748823073
       3
 i =        5, time =        2.500, E =       -17.2187371838
  O         3.0015878293        3.0007865578        3.3004214763
  H         3.0103619832        3.7584608649        2.6881719698
  H         2.9641542547        2.2289180018        2.6723131410
