 DBCSR| CPU Multiplication driver                                           BLAS (U)
 DBCSR| Multrec recursion limit                                              512 (U)
 DBCSR| Multiplication stack size                                           1000 (D)
 DBCSR| Maximum elements for images                                    UNLIMITED (U)
 DBCSR| Multiplicative factor virtual images                                   1 (U)
 DBCSR| Use multiplication densification                                       T (D)
 DBCSR| Multiplication size stacks                                             3 (U)
 DBCSR| Use memory pool for CPU allocation                                     F (U)
 DBCSR| Number of 3D layers                                               SINGLE (U)
 DBCSR| Use MPI memory allocation                                              F (U)
 DBCSR| Use RMA algorithm                                                      F (U)
 DBCSR| Use Communication thread                                               T (U)
 DBCSR| Communication thread load                                             87 (D)
 DBCSR| MPI: My process id                                                     0
 DBCSR| MPI: Number of processes                                               1
 DBCSR| OMP: Current number of threads                                         1
 DBCSR| OMP: Max number of threads                                             1
 DBCSR| Split modifier for TAS multiplication algorithm                  1.0E+00 (U)


  **** **** ******  **  PROGRAM STARTED AT               2026-09-12 02:13:54.684
 ***** ** ***  *** **   PROGRAM STARTED ON                       <host>
 **    ****   ******    PROGRAM STARTED BY                                 <user>
 ***** **    ** ** **   PROGRAM PROCESS ID                                 62254
  **** **  *******  **  PROGRAM STARTED IN /home/<user>/adit/examples/cp2
                                           k_h2o_md_generated

 CP2K| version string:                                       CP2K version 2026.2
 CP2K| source code revision number:                                      f2f8b68
 CP2K| cp2kflags: omp libint fftw3 libxc elpa parallel scalapack mpi_f08 cosma l
 CP2K|            ibxs libxsmm plumed2 spglib sirius libtorch hdf5 trexio
 CP2K| is freely available from                            https://www.cp2k.org/
 CP2K| Program compiled at                                   2026-08-11 12:21:00
 CP2K| Program compiled on                                                      
 CP2K| Program compiled for                                               x86_64
 CP2K| Data directory path      /home/<user>/miniforge3/envs/cp2k/share/cp2k/data
 CP2K| Input file name                                                  cp2k.inp

 GLOBAL| Force Environment number                                              1
 GLOBAL| Basis set file name                                         BASIS_adit
 GLOBAL| Potential file name                                     POTENTIAL_adit
 GLOBAL| MM Potential file name                                     MM_POTENTIAL
 GLOBAL| Coordinate file name                                      __STD_INPUT__
 GLOBAL| Method name                                                        CP2K
 GLOBAL| Project name                                                      adit
 GLOBAL| Run type                                                             MD
 GLOBAL| FFT library                                                       FFTW3
 GLOBAL| Diagonalization library                                            ELPA
 GLOBAL| Cholesky decomposition library                                ScaLAPACK
 GLOBAL| DGEMM library                                                      BLAS
 GLOBAL| Minimum number of eigenvectors for ELPA usage                        64
 GLOBAL| Orthonormality check for eigenvectors                          DISABLED
 GLOBAL| Matrix multiplication library                                     COSMA
 GLOBAL| All-to-all communication in single precision                          F
 GLOBAL| FFTs using library dependent lengths                                  F
 GLOBAL| Grid backend                                                       AUTO
 GLOBAL| Global print level                                               MEDIUM
 GLOBAL| MPI I/O enabled                                                       T
 GLOBAL| Total number of message passing processes                             1
 GLOBAL| Number of distributed systems (nodes)                                 1
 GLOBAL| Number of threads for this process                                    1
 GLOBAL| This output is from process                                           0
 GLOBAL| OpenMP stack size per thread (OMP_STACKSIZE)                    default
 GLOBAL| CPU model name                Intel(R) Core(TM) i7-1065G7 CPU @ 1.30GHz
 GLOBAL| CPUID                                                              1003
 GLOBAL| Compiled for CPUID                                                 1002

 *** HINT in environment.F:970 :: The compiler target (x86_avx2) used to ***
 *** build this binary does not enable all instruction-set extensions    ***
 *** available on this CPU (x86_avx512). Consider reconfiguring and      ***
 *** rebuilding CP2K for this target system to enable them.              ***


 MEMORY| system memory details [Kb]
 MEMORY|                        rank 0           min           max       average
 MEMORY| MemTotal              7968380       7968380       7968380       7968380
 MEMORY| MemFree                678308        678308        678308        678308
 MEMORY| Buffers                523860        523860        523860        523860
 MEMORY| Cached                4487776       4487776       4487776       4487776
 MEMORY| Slab                   470200        470200        470200        470200
 MEMORY| SReclaimable           366124        366124        366124        366124
 MEMORY| MemLikelyFree         6056068       6056068       6056068       6056068


 *** Fundamental physical constants (SI units) ***

 *** Literature: B. J. Mohr and B. N. Taylor,
 ***             CODATA recommended values of the fundamental physical
 ***             constants: 2006, Web Version 5.1
 ***             http://physics.nist.gov/constants

 Speed of light in vacuum [m/s]                             2.99792458000000E+08
 Magnetic constant or permeability of vacuum [N/A**2]       1.25663706143592E-06
 Electric constant or permittivity of vacuum [F/m]          8.85418781762039E-12
 Planck constant (h) [J*s]                                  6.62606896000000E-34
 Planck constant (h-bar) [J*s]                              1.05457162825177E-34
 Elementary charge [C]                                      1.60217648700000E-19
 Electron mass [kg]                                         9.10938215000000E-31
 Electron g factor [ ]                                     -2.00231930436220E+00
 Proton mass [kg]                                           1.67262163700000E-27
 Fine-structure constant                                    7.29735253760000E-03
 Rydberg constant [1/m]                                     1.09737315685270E+07
 Avogadro constant [1/mol]                                  6.02214179000000E+23
 Boltzmann constant [J/K]                                   1.38065040000000E-23
 Atomic mass unit [kg]                                      1.66053878200000E-27
 Bohr radius [m]                                            5.29177208590000E-11

 *** Conversion factors ***

 [u] -> [a.u.]                                              1.82288848426455E+03
 [Angstrom] -> [Bohr] = [a.u.]                              1.88972613288564E+00
 [a.u.] = [Bohr] -> [Angstrom]                              5.29177208590000E-01
 [a.u.] -> [s]                                              2.41888432650478E-17
 [a.u.] -> [fs]                                             2.41888432650478E-02
 [a.u.] -> [J]                                              4.35974393937059E-18
 [a.u.] -> [N]                                              8.23872205491840E-08
 [a.u.] -> [K]                                              3.15774647902944E+05
 [a.u.] -> [kJ/mol]                                         2.62549961709828E+03
 [a.u.] -> [kcal/mol]                                       6.27509468713739E+02
 [a.u.] -> [Pa]                                             2.94210107994716E+13
 [a.u.] -> [bar]                                            2.94210107994716E+08
 [a.u.] -> [atm]                                            2.90362800883016E+08
 [a.u.] -> [eV]                                             2.72113838565563E+01
 [a.u.] -> [Hz]                                             6.57968392072181E+15
 [a.u.] -> [1/cm] (wave numbers)                            2.19474631370540E+05
 [a.u./Bohr**2] -> [1/cm]                                   5.14048714338585E+03
 

 CELL| Volume [angstrom^3]:                                           216.000000
 CELL| Vector a [angstrom]:       6.000     0.000     0.000   |a| =     6.000000
 CELL| Vector b [angstrom]:       0.000     6.000     0.000   |b| =     6.000000
 CELL| Vector c [angstrom]:       0.000     0.000     6.000   |c| =     6.000000
 CELL| Angle (b,c), alpha [degree]:                                    90.000000
 CELL| Angle (a,c), beta  [degree]:                                    90.000000
 CELL| Angle (a,b), gamma [degree]:                                    90.000000
 CELL| Numerically orthorhombic:                                             YES
 CELL| Periodicity                                                          NONE

 CELL_REF| Volume [angstrom^3]:                                       216.000000
 CELL_REF| Vector a [angstrom     6.000     0.000     0.000   |a| =     6.000000
 CELL_REF| Vector b [angstrom     0.000     6.000     0.000   |b| =     6.000000
 CELL_REF| Vector c [angstrom     0.000     0.000     6.000   |c| =     6.000000
 CELL_REF| Angle (b,c), alpha [degree]:                                90.000000
 CELL_REF| Angle (a,c), beta  [degree]:                                90.000000
 CELL_REF| Angle (a,b), gamma [degree]:                                90.000000
 CELL_REF| Numerically orthorhombic:                                         YES
 CELL_REF| Periodicity                                                      NONE

 GENERATE|  Preliminary Number of Bonds generated:                             0
 GENERATE|  Achieved consistency in connectivity generation.

 *******************************************************************************
 *******************************************************************************
 **                                                                           **
 **     #####                         ##              ##                      **
 **    ##   ##            ##          ##              ##                      **
 **   ##     ##                       ##            ######                    **
 **   ##     ##  ##   ##  ##   #####  ##  ##   ####   ##    #####    #####    **
 **   ##     ##  ##   ##  ##  ##      ## ##   ##      ##   ##   ##  ##   ##   **
 **   ##  ## ##  ##   ##  ##  ##      ####     ###    ##   ######   ######    **
 **    ##  ###   ##   ##  ##  ##      ## ##      ##   ##   ##       ##        **
 **     #######   #####   ##   #####  ##  ##  ####    ##    #####   ##        **
 **           ##                                                    ##        **
 **                                                                           **
 **                                                ... make the atoms dance   **
 **                                                                           **
 **            Copyright (C) by CP2K developers group (2000-2026)             **
 **                      J. Chem. Phys. 152, 194103 (2020)                    **
 **                                                                           **
 *******************************************************************************

 DFT| Spin restricted Kohn-Sham (RKS) calculation                            RKS
 DFT| Multiplicity                                                             1
 DFT| Number of spin states                                                    1
 DFT| Charge                                                                   0
 DFT| Self-interaction correction (SIC)                                       NO
 DFT| Cutoffs: density                                              1.000000E-10
 DFT|          gradient                                             1.000000E-10
 DFT|          tau                                                  1.000000E-10
 DFT|          cutoff_smoothing_range                               0.000000E+00
 DFT| XC density smoothing                                                  NONE
 DFT| XC derivatives                                                          PW

 FUNCTIONAL| PBE:
 FUNCTIONAL| J.P.Perdew, K.Burke, M.Ernzerhof, Phys. Rev. Letter, vol. 77, n 18,
 FUNCTIONAL|  pp. 3865-3868, (1996) {spin unpolarized}                          


 QS| Method:                                                                 GPW
 QS| Density plane wave grid type                        NON-SPHERICAL FULLSPACE
 QS| Number of grid levels:                                                    4
 QS| Density cutoff [a.u.]:                                                140.0
 QS| Multi grid cutoff [a.u.]: 1) grid level                               140.0
 QS|                           2) grid level                                46.7
 QS|                           3) grid level                                15.6
 QS|                           4) grid level                                 5.2
 QS| Grid level progression factor:                                          3.0
 QS| Relative density cutoff [a.u.]:                                        20.0
 QS| Interaction thresholds: eps_pgf_orb:                                1.0E-05
 QS|                         eps_filter_matrix:                          0.0E+00
 QS|                         eps_core_charge:                            1.0E-12
 QS|                         eps_rho_gspace:                             1.0E-10
 QS|                         eps_rho_rspace:                             1.0E-10
 QS|                         eps_gvg_rspace:                             1.0E-05
 QS|                         eps_ppl:                                    1.0E-02
 QS|                         eps_ppnl:                                   1.0E-07


 ATOMIC KIND INFORMATION

  1. Atomic kind: O                                     Number of atoms:       1

     Orbital Basis Set                                        DZVP-MOLOPT-SR-GTH

       Number of orbital shell sets:                                           1
       Number of orbital shells:                                               5
       Number of primitive Cartesian functions:                                5
       Number of Cartesian basis functions:                                   14
       Number of spherical basis functions:                                   13
       Norm type:                                                              2

       Normalised Cartesian orbitals:

                        Set   Shell   Orbital            Exponent    Coefficient

                          1       1    2s               10.389228       0.396646
                                                         3.849621       0.208811
                                                         1.388401      -0.301641
                                                         0.496955      -0.274061
                                                         0.162492      -0.033677

                          1       2    3s               10.389228       0.303673
                                                         3.849621       0.240943
                                                         1.388401      -0.313066
                                                         0.496955      -0.043055
                                                         0.162492       0.213991

                          1       3    3px              10.389228      -1.530415
                                                         3.849621      -1.371928
                                                         1.388401      -0.761951
                                                         0.496955      -0.253695
                                                         0.162492      -0.035541
                          1       3    3py              10.389228      -1.530415
                                                         3.849621      -1.371928
                                                         1.388401      -0.761951
                                                         0.496955      -0.253695
                                                         0.162492      -0.035541
                          1       3    3pz              10.389228      -1.530415
                                                         3.849621      -1.371928
                                                         1.388401      -0.761951
                                                         0.496955      -0.253695
                                                         0.162492      -0.035541

                          1       4    4px              10.389228      -0.565392
                                                         3.849621      -0.038231
                                                         1.388401      -0.382373
                                                         0.496955       0.179070
                                                         0.162492       0.122714
                          1       4    4py              10.389228      -0.565392
                                                         3.849621      -0.038231
                                                         1.388401      -0.382373
                                                         0.496955       0.179070
                                                         0.162492       0.122714
                          1       4    4pz              10.389228      -0.565392
                                                         3.849621      -0.038231
                                                         1.388401      -0.382373
                                                         0.496955       0.179070
                                                         0.162492       0.122714

                          1       5    4dx2             10.389228       1.867377
                                                         3.849621       0.670994
                                                         1.388401       1.353441
                                                         0.496955       0.273538
                                                         0.162492       0.006620
                          1       5    4dxy             10.389228       3.234392
                                                         3.849621       1.162195
                                                         1.388401       2.344229
                                                         0.496955       0.473781
                                                         0.162492       0.011466
                          1       5    4dxz             10.389228       3.234392
                                                         3.849621       1.162195
                                                         1.388401       2.344229
                                                         0.496955       0.473781
                                                         0.162492       0.011466
                          1       5    4dy2             10.389228       1.867377
                                                         3.849621       0.670994
                                                         1.388401       1.353441
                                                         0.496955       0.273538
                                                         0.162492       0.006620
                          1       5    4dyz             10.389228       3.234392
                                                         3.849621       1.162195
                                                         1.388401       2.344229
                                                         0.496955       0.473781
                                                         0.162492       0.011466
                          1       5    4dz2             10.389228       1.867377
                                                         3.849621       0.670994
                                                         1.388401       1.353441
                                                         0.496955       0.273538
                                                         0.162492       0.006620

       Atomic covalent radius [Angstrom]:                                  0.730

       Atomic van der Waals radius [Angstrom]:                             1.520

     GTH Potential information for                                    GTH-PBE-q6

       Description:                       Goedecker-Teter-Hutter pseudopotential
                                           Goedecker et al., PRB 54, 1703 (1996)
                                          Hartwigsen et al., PRB 58, 3641 (1998)
                                                      Krack, TCA 114, 145 (2005)

       Gaussian exponent of the core charge distribution:               8.360253
       Electronic configuration (s p d ...):                               2   4

       Parameters of the local part of the GTH pseudopotential:

                          rloc        C1          C2          C3          C4
                        0.244554  -16.667215    2.487311

       Parameters of the non-local part of the GTH pseudopotential:

                   l      r(l)      h(i,j,l)

                   0    0.220956   18.337458
                   1    0.211332

  2. Atomic kind: H                                     Number of atoms:       2

     Orbital Basis Set                                        DZVP-MOLOPT-SR-GTH

       Number of orbital shell sets:                                           1
       Number of orbital shells:                                               3
       Number of primitive Cartesian functions:                                5
       Number of Cartesian basis functions:                                    5
       Number of spherical basis functions:                                    5
       Norm type:                                                              2

       Normalised Cartesian orbitals:

                        Set   Shell   Orbital            Exponent    Coefficient

                          1       1    2s               10.068468      -0.133023
                                                         2.680223      -0.177618
                                                         0.791502      -0.258419
                                                         0.239116      -0.107525
                                                         0.082193      -0.014019

                          1       2    3s               10.068468       0.344673
                                                         2.680223       1.819821
                                                         0.791502      -0.999069
                                                         0.239116       0.017430
                                                         0.082193       0.082660

                          1       3    3px              10.068468       0.155326
                                                         2.680223       0.367157
                                                         0.791502       0.311480
                                                         0.239116       0.080105
                                                         0.082193       0.033440
                          1       3    3py              10.068468       0.155326
                                                         2.680223       0.367157
                                                         0.791502       0.311480
                                                         0.239116       0.080105
                                                         0.082193       0.033440
                          1       3    3pz              10.068468       0.155326
                                                         2.680223       0.367157
                                                         0.791502       0.311480
                                                         0.239116       0.080105
                                                         0.082193       0.033440

       Atomic covalent radius [Angstrom]:                                  0.320

       Atomic van der Waals radius [Angstrom]:                             1.090

     GTH Potential information for                                    GTH-PBE-q1

       Description:                       Goedecker-Teter-Hutter pseudopotential
                                           Goedecker et al., PRB 54, 1703 (1996)
                                          Hartwigsen et al., PRB 58, 3641 (1998)
                                                      Krack, TCA 114, 145 (2005)

       Gaussian exponent of the core charge distribution:              12.500000
       Electronic configuration (s p d ...):                                   1

       Parameters of the local part of the GTH pseudopotential:

                          rloc        C1          C2          C3          C4
                        0.200000   -4.178900    0.724463


 MOLECULE KIND INFORMATION


 All atoms are their own molecule, skipping detailed information


 TOTAL NUMBERS AND MAXIMUM NUMBERS

  Total number of            - Atomic kinds:                                   2
                             - Atoms:                                          3
                             - Shell sets:                                     3
                             - Shells:                                        11
                             - Primitive Cartesian functions:                 15
                             - Cartesian basis functions:                     24
                             - Spherical basis functions:                     23

  Maximum angular momentum of- Orbital basis functions:                        2
                             - Local part of the GTH pseudopotential:          2
                             - Non-local part of the GTH pseudopotential:      0


 MODULE QUICKSTEP: ATOMIC COORDINATES IN ANGSTROM

   Atom Kind Element         X             Y             Z       Z(eff)     Mass
      1    1 O     8      3.000000      3.000000      3.298154   6.0000  15.9994
      2    2 H     1      3.000000      3.763239      2.701845   1.0000   1.0079
      3    2 H     1      3.000000      2.236761      2.701845   1.0000   1.0079



 SCF PARAMETERS         Density guess:                                    ATOMIC
                        --------------------------------------------------------
                        max_scf:                                              50
                        max_scf_history:                                       0
                        max_diis:                                              4
                        --------------------------------------------------------
                        eps_scf:                                        1.00E-05
                        eps_scf_history:                                0.00E+00
                        eps_diis:                                       1.00E-01
                        eps_eigval:                                     1.00E-05
                        --------------------------------------------------------
                        level_shift [a.u.]:                             0.000000
                        --------------------------------------------------------
                        Mixing method:                           DIRECT_P_MIXING
                        --------------------------------------------------------
                        No outer SCF

 PW_GRID| Information for grid number                                          1
 PW_GRID| Cutoff [a.u.]                                                    280.0
 PW_GRID| spherical cutoff:                                                   NO
 PW_GRID|   Bounds   1            -45      44                Points:          90
 PW_GRID|   Bounds   2            -45      44                Points:          90
 PW_GRID|   Bounds   3            -45      44                Points:          90
 PW_GRID| Volume element (a.u.^3)  0.2000E-02     Volume (a.u.^3)      1457.6403
 PW_GRID| Grid span                                                    FULLSPACE

 PW_GRID| Information for grid number                                          2
 PW_GRID| Number of the reference grid                                         1
 PW_GRID| Cutoff [a.u.]                                                    140.0
 PW_GRID| spherical cutoff:                                                   NO
 PW_GRID|   Bounds   1            -32      31                Points:          64
 PW_GRID|   Bounds   2            -32      31                Points:          64
 PW_GRID|   Bounds   3            -32      31                Points:          64
 PW_GRID| Volume element (a.u.^3)  0.5560E-02     Volume (a.u.^3)      1457.6403
 PW_GRID| Grid span                                                    FULLSPACE

 PW_GRID| Information for grid number                                          3
 PW_GRID| Number of the reference grid                                         2
 PW_GRID| Cutoff [a.u.]                                                     46.7
 PW_GRID| spherical cutoff:                                                   NO
 PW_GRID|   Bounds   1            -18      17                Points:          36
 PW_GRID|   Bounds   2            -18      17                Points:          36
 PW_GRID|   Bounds   3            -18      17                Points:          36
 PW_GRID| Volume element (a.u.^3)  0.3124E-01     Volume (a.u.^3)      1457.6403
 PW_GRID| Grid span                                                    FULLSPACE

 PW_GRID| Information for grid number                                          4
 PW_GRID| Number of the reference grid                                         2
 PW_GRID| Cutoff [a.u.]                                                     15.6
 PW_GRID| spherical cutoff:                                                   NO
 PW_GRID|   Bounds   1            -12      11                Points:          24
 PW_GRID|   Bounds   2            -12      11                Points:          24
 PW_GRID|   Bounds   3            -12      11                Points:          24
 PW_GRID| Volume element (a.u.^3)  0.1054         Volume (a.u.^3)      1457.6403
 PW_GRID| Grid span                                                    FULLSPACE

 PW_GRID| Information for grid number                                          5
 PW_GRID| Number of the reference grid                                         2
 PW_GRID| Cutoff [a.u.]                                                      5.2
 PW_GRID| spherical cutoff:                                                   NO
 PW_GRID|   Bounds   1             -6       5                Points:          12
 PW_GRID|   Bounds   2             -6       5                Points:          12
 PW_GRID|   Bounds   3             -6       5                Points:          12
 PW_GRID| Volume element (a.u.^3)  0.8435         Volume (a.u.^3)      1457.6403
 PW_GRID| Grid span                                                    FULLSPACE

 POISSON| Solver                                          Martyna-Tuckerman (MT)
 POISSON| MT| Alpha                                                        7.000
 POISSON| MT| Relative cutoff                                                2.0
 POISSON| Periodicity                                                       NONE

 RS_GRID| Information for grid number                                          2
 RS_GRID|   Bounds   1            -32      31                Points:          64
 RS_GRID|   Bounds   2            -32      31                Points:          64
 RS_GRID|   Bounds   3            -32      31                Points:          64

 RS_GRID| Information for grid number                                          3
 RS_GRID|   Bounds   1            -18      17                Points:          36
 RS_GRID|   Bounds   2            -18      17                Points:          36
 RS_GRID|   Bounds   3            -18      17                Points:          36

 RS_GRID| Information for grid number                                          4
 RS_GRID|   Bounds   1            -12      11                Points:          24
 RS_GRID|   Bounds   2            -12      11                Points:          24
 RS_GRID|   Bounds   3            -12      11                Points:          24

 RS_GRID| Information for grid number                                          5
 RS_GRID|   Bounds   1             -6       5                Points:          12
 RS_GRID|   Bounds   2             -6       5                Points:          12
 RS_GRID|   Bounds   3             -6       5                Points:          12

 MD_PAR| Molecular dynamics protocol (MD input parameters)
 MD_PAR| Ensemble type                                                       NVT
 MD_PAR| Number of time steps                                                  5
 MD_PAR| Time step [fs]                                                 0.500000
 MD_PAR| Temperature [K]                                              300.000000
 MD_PAR| Temperature tolerance [K]                                      0.000000
 MD_PAR| Print MD information every                                    1 step(s)
 MD_PAR| File type   Print frequency [steps]                          File names
 MD_PAR| Coordinates          1                                  adit-pos-1.xyz
 MD_PAR| Velocities           1                                  adit-vel-1.xyz
 MD_PAR| Energies             1                                     adit-1.ener
 MD_PAR| Dump                20                                  adit-1.restart

 ROT| Rotational analysis information
 ROT| Principal axes and moments of inertia [a.u.]
 ROT|                           1                   2                   3
 ROT| Eigenvalues      4.14407802267E+03   7.64440385962E+03   1.17884818823E+04
 ROT|      x              0.000000000000      0.000000000000     -1.000000000000
 ROT|      y              1.000000000000      0.000000000000      0.000000000000
 ROT|      z              0.000000000000      1.000000000000     -0.000000000000
 ROT| Number of rotovibrational vectors                                        6

 DOF| Calculation of degrees of freedom
 DOF| Number of atoms                                                          3
 DOF| Number of intramolecular constraints                                     0
 DOF| Number of intermolecular constraints                                     0
 DOF| Invariants (translations + rotations)                                    6
 DOF| Degrees of freedom                                                       3

 DOF| Restraints information
 DOF| Number of intramolecular restraints                                      0
 DOF| Number of intermolecular restraints                                      0

 THERMOSTAT| Thermostat information for PARTICLES
 THERMOSTAT| Type of thermostat            Canonical Sampling/Velocity Rescaling
 THERMOSTAT| CSVR time constant [fs]                                  100.000000
 THERMOSTAT| Initial kinetic energy                           0.000000000000E+00
 THERMOSTAT| End of thermostat information for PARTICLES

 MD_VEL| Velocities initialization
 MD_VEL| Initial temperature [K]                                      300.000000
 MD_VEL| COM velocity            -0.0000000000     0.0000000000     0.0000000000
 MD_VEL| COM position             5.6691783987     5.6691783987     6.1065149025
 MD_VEL| Angular velocity         0.0000278081     0.0002579553    -0.0003224728

 Extrapolation method: initial_guess

 Atomic guess: The first density matrix is obtained in terms of atomic orbitals
               and electronic configurations assigned to each atomic kind

 Guess for atomic kind: O

 Electronic structure
    Total number of core electrons                                          2.00
    Total number of valence electrons                                       6.00
    Total number of electrons                                               8.00
    Multiplicity                                                   not specified
    S   [  2.00] 2.00
    P      4.00


 *******************************************************************************
                  Iteration          Convergence                     Energy [au]
 *******************************************************************************
                          1        0.702811                     -15.577904332270
                          2        0.612408                     -15.588447180504
                          3        0.955344E-02                 -15.655871208406
                          4        0.223754E-02                 -15.655885053552
                          5        0.157183E-02                 -15.655885461027
                          6        0.124953E-02                 -15.655885607150
                          7        0.312011E-06                 -15.655885858066

 Energy components [Hartree]           Total Energy ::          -15.655885858066
                                        Band Energy ::           -2.983128125584
                                     Kinetic Energy ::           11.754765134683
                                   Potential Energy ::          -27.410650992749
                                      Virial (-V/T) ::            2.331875684345
                                        Core Energy ::          -26.153522949072
                                          XC Energy ::           -3.157392363346
                                     Coulomb Energy ::           13.655029454351
                       Total Pseudopotential Energy ::          -37.943026860963
                       Local Pseudopotential Energy ::          -39.220419683052
                    Nonlocal Pseudopotential Energy ::            1.277392822089
                                        Confinement ::            0.347387772086

 Orbital energies  State     L     Occupation   Energy[a.u.]          Energy[eV]

                       1     0          2.000      -0.861522          -23.443215

                       1     1          4.000      -0.315021           -8.572154


 Total Electron Density at R=0:                                         0.000093

 Guess for atomic kind: H

 Electronic structure
    Total number of core electrons                                          0.00
    Total number of valence electrons                                       1.00
    Total number of electrons                                               1.00
    Multiplicity                                                   not specified
    S      1.00


 *******************************************************************************
                  Iteration          Convergence                     Energy [au]
 *******************************************************************************
                          1        0.250972E-02                  -0.375256815885
                          2        0.570752E-04                  -0.375258666164
                          3        0.832405E-09                  -0.375258667122

 Energy components [Hartree]           Total Energy ::           -0.375258667122
                                        Band Energy ::           -0.076317618391
                                     Kinetic Energy ::            0.771356566341
                                   Potential Energy ::           -1.146615233463
                                      Virial (-V/T) ::            1.486491829455
                                        Core Energy ::           -0.456090715790
                                          XC Energy ::           -0.314218627334
                                     Coulomb Energy ::            0.395050676003
                       Total Pseudopotential Energy ::           -1.238482237174
                       Local Pseudopotential Energy ::           -1.238482237174
                    Nonlocal Pseudopotential Energy ::            0.000000000000
                                        Confinement ::            0.110349550431

 Orbital energies  State     L     Occupation   Energy[a.u.]          Energy[eV]

                       1     0          1.000      -0.076318           -2.076708


 Total Electron Density at R=0:                                         0.425022
 Re-scaling the density matrix to get the right number of electrons
                  # Electrons              Trace(P)               Scaling factor
                            8                 8.000                        1.000

 Number of electrons:                                                          8
 Number of occupied orbitals:                                                  4
 Number of molecular orbitals:                                                 4

 Number of orbital functions:                                                 23
 Number of independent orbital functions:                                     23


 SCF WAVEFUNCTION OPTIMIZATION

  Step     Update method      Time    Convergence         Total energy    Change
  ------------------------------------------------------------------------------
     1 P_Mix/Diag. 0.40E+00    0.2     0.69051960       -16.9562697459 -1.70E+01
     2 P_Mix/Diag. 0.40E+00    0.2     0.32789468       -17.0621671638 -1.06E-01
     3 P_Mix/Diag. 0.40E+00    0.1     0.20121691       -17.1257030560 -6.35E-02
     4 P_Mix/Diag. 0.40E+00    0.1     0.12404986       -17.1633457309 -3.76E-02
     5 P_Mix/Diag. 0.40E+00    0.1     0.07596506       -17.1858081421 -2.25E-02
     6 DIIS/Diag.  0.31E-02    0.1     0.04695072       -17.1992550253 -1.34E-02
     7 DIIS/Diag.  0.12E-03    0.2     0.00017879       -17.2193991150 -2.01E-02
     8 DIIS/Diag.  0.81E-04    0.1     0.00010650       -17.2193991268 -1.18E-08
     9 DIIS/Diag.  0.94E-04    0.1     0.00005374       -17.2193991260  7.46E-10
    10 DIIS/Diag.  0.14E-05    0.1     0.00000154       -17.2193991294 -3.31E-09

  *** SCF run converged in    10 steps ***


  Electronic density on regular grids:         -7.9999998571        0.0000001429
  Core density on regular grids:                7.9999999998       -0.0000000002
  Total charge density on r-space grids:        0.0000001427
  Total charge density g-space grids:           0.0000001427

  Overlap energy of the core charge distribution:               0.00000004517142
  Self energy of the core charge distribution:                -44.34715499673765
  Core Hamiltonian energy:                                     12.88393591894527
  Hartree energy:                                              18.46644882623310
  Exchange-correlation energy:                                 -4.22262892296814

  Total energy:                                               -17.21939912935601

 !-----------------------------------------------------------------------------!
                     Mulliken Population Analysis

 #  Atom  Element  Kind  Atomic population                           Net charge
       1     O        1          6.246753                             -0.246753
       2     H        2          0.876624                              0.123376
       3     H        2          0.876624                              0.123376
 # Total charge                              8.000000                  0.000000

 !-----------------------------------------------------------------------------!

 !-----------------------------------------------------------------------------!
                           Hirshfeld Charges

  #Atom  Element  Kind  Ref Charge     Population                    Net charge
      1       O      1       6.000          7.110                        -1.110
      2       H      2       1.000          0.439                         0.561
      3       H      2       1.000          0.439                         0.561

  Total Charge                                                            0.011
 !-----------------------------------------------------------------------------!

 ENERGY| Total FORCE_EVAL ( QS ) energy [hartree]            -17.219399129357214

 FORCES| Atomic forces [hartree/bohr]
 FORCES|   Atom     x               y               z               |f|
 FORCES|      1  4.55388260E-10  4.26000322E-10 -3.68406908E-03   3.68406908E-03
 FORCES|      2  9.30166577E-12  1.32382899E-03 -5.88763020E-04   1.44884957E-03
 FORCES|      3  1.08057935E-11 -1.32382899E-03 -5.88763023E-04   1.44884957E-03
 FORCES| Sum     4.75495719E-10  4.28205558E-10 -4.86159512E-03
 FORCES| Total atomic force                                       4.86159512E-03

 MD_INI| MD initialization
 MD_INI| Potential energy [hartree]                          -0.172193991294E+02
 MD_INI| Kinetic energy [hartree]                             0.142506690448E-02
 MD_INI| Temperature [K]                                              300.000000
 MD_INI| Cell volume [bohr^3]                                 1.457640269947E+03
 MD_INI| Cell volume [ang^3]                                  2.160000000000E+02
 MD_INI| Cell lengths [bohr]      1.13383568E+01  1.13383568E+01  1.13383568E+01
 MD_INI| Cell lengths [ang]       6.00000000E+00  6.00000000E+00  6.00000000E+00
 MD_INI| Cell angles [deg]        9.00000000E+01  9.00000000E+01  9.00000000E+01

 -------------------------
 MD STEP:            1 / 5
 -------------------------

 Parameters for the always stable predictor-corrector (ASPC) method:

  ASPC order: 0

  B(1) =   1.000000

 Extrapolation method: ASPC

 Number of electrons:                                                          8
 Number of occupied orbitals:                                                  4
 Number of molecular orbitals:                                                 4

 Number of orbital functions:                                                 23
 Number of independent orbital functions:                                     23


 SCF WAVEFUNCTION OPTIMIZATION

  Step     Update method      Time    Convergence         Total energy    Change
  ------------------------------------------------------------------------------
     1 P_Mix/Diag. 0.40E+00    0.1     0.00723594       -17.2192972637 -1.72E+01
     2 P_Mix/Diag. 0.40E+00    0.1     0.00431281       -17.2193124458 -1.52E-05
     3 DIIS/Diag.  0.39E-03    0.1     0.00257431       -17.2193218405 -9.39E-06
     4 DIIS/Diag.  0.22E-03    0.1     0.00011586       -17.2193358460 -1.40E-05
     5 DIIS/Diag.  0.44E-03    0.1     0.00010042       -17.2193357970  4.90E-08
     6 DIIS/Diag.  0.25E-03    0.2     0.00013639       -17.2193358399 -4.29E-08
     7 DIIS/Diag.  0.24E-05    0.2     0.00000121       -17.2193358630 -2.31E-08

  *** SCF run converged in     7 steps ***


  Electronic density on regular grids:         -7.9999998599        0.0000001401
  Core density on regular grids:                7.9999999998       -0.0000000002
  Total charge density on r-space grids:        0.0000001399
  Total charge density g-space grids:           0.0000001399

  Overlap energy of the core charge distribution:               0.00000003762347
  Self energy of the core charge distribution:                -44.34715499673765
  Core Hamiltonian energy:                                     12.86713976389914
  Hartree energy:                                              18.47861351915531
  Exchange-correlation energy:                                 -4.21793418693089

  Total energy:                                               -17.21933586299062

 !-----------------------------------------------------------------------------!
                     Mulliken Population Analysis

 #  Atom  Element  Kind  Atomic population                           Net charge
       1     O        1          6.252389                             -0.252389
       2     H        2          0.876021                              0.123979
       3     H        2          0.871590                              0.128410
 # Total charge                              8.000000                  0.000000

 !-----------------------------------------------------------------------------!

 !-----------------------------------------------------------------------------!
                           Hirshfeld Charges

  #Atom  Element  Kind  Ref Charge     Population                    Net charge
      1       O      1       6.000          7.112                        -1.112
      2       H      2       1.000          0.439                         0.561
      3       H      2       1.000          0.438                         0.562

  Total Charge                                                            0.011
 !-----------------------------------------------------------------------------!

 ENERGY| Total FORCE_EVAL ( QS ) energy [hartree]            -17.219335862993148

 FORCES| Atomic forces [hartree/bohr]
 FORCES|   Atom     x               y               z               |f|
 FORCES|      1 -1.83006317E-04 -5.99342698E-03 -1.01710437E-02   1.18069805E-02
 FORCES|      2  9.29845196E-06  8.94059244E-04  2.90036662E-04   9.39973222E-04
 FORCES|      3  5.01565266E-05  5.02893581E-03  4.95797454E-03   7.06216840E-03
 FORCES| Sum    -1.23551338E-04 -7.04319273E-05 -4.92303254E-03
 FORCES| Total atomic force                                       4.92508629E-03

 MD_VEL| Centre of mass motion (COM)
 MD_VEL| VCOM [a.u.]             -0.0000000387    -0.0000000221    -0.0000030675

 MD| ***************************************************************************
 MD| Step number                                                               1
 MD| Time [fs]                                                          0.500000
 MD| Conserved quantity [hartree]                            -0.172179720379E+02
 MD| ---------------------------------------------------------------------------
 MD|                                          Instantaneous             Averages
 MD| CPU time per MD step [s]                      2.780613             2.780613
 MD| Energy drift per atom [K]           0.213097453943E+00   0.000000000000E+00
 MD| Potential energy [hartree]         -0.172193358630E+02  -0.172193358630E+02
 MD| Kinetic energy [hartree]            0.129227808615E-02   0.129227808615E-02
 MD| Temperature [K]                             272.045772           272.045772
 MD| ***************************************************************************
 MD| Estimated peak process memory after this step [MiB]                     464

 -------------------------
 MD STEP:            2 / 5
 -------------------------

 Parameters for the always stable predictor-corrector (ASPC) method:

  ASPC order: 0

  B(1) =   2.000000
  B(2) =  -1.000000

 Extrapolation method: ASPC

 Number of electrons:                                                          8
 Number of occupied orbitals:                                                  4
 Number of molecular orbitals:                                                 4

 Number of orbital functions:                                                 23
 Number of independent orbital functions:                                     23


 SCF WAVEFUNCTION OPTIMIZATION

  Step     Update method      Time    Convergence         Total energy    Change
  ------------------------------------------------------------------------------
     1 P_Mix/Diag. 0.40E+00    0.1     0.00085922       -17.2191595840 -1.72E+01
     2 P_Mix/Diag. 0.40E+00    0.2     0.00051964       -17.2191598416 -2.58E-07
     3 DIIS/Diag.  0.56E-04    0.1     0.00031612       -17.2191600023 -1.61E-07
     4 DIIS/Diag.  0.32E-04    0.2     0.00001507       -17.2191602420 -2.40E-07
     5 DIIS/Diag.  0.58E-04    0.1     0.00001298       -17.2191602413  7.51E-10
     6 DIIS/Diag.  0.35E-04    0.2     0.00002016       -17.2191602419 -6.49E-10
     7 DIIS/Diag.  0.39E-06    0.2     0.00000019       -17.2191602423 -4.19E-10

  *** SCF run converged in     7 steps ***


  Electronic density on regular grids:         -7.9999998622        0.0000001378
  Core density on regular grids:                7.9999999998       -0.0000000002
  Total charge density on r-space grids:        0.0000001376
  Total charge density g-space grids:           0.0000001376

  Overlap energy of the core charge distribution:               0.00000003254154
  Self energy of the core charge distribution:                -44.34715499673765
  Core Hamiltonian energy:                                     12.85279899842623
  Hartree energy:                                              18.48909213566890
  Exchange-correlation energy:                                 -4.21389641224096

  Total energy:                                               -17.21916024234193

 !-----------------------------------------------------------------------------!
                     Mulliken Population Analysis

 #  Atom  Element  Kind  Atomic population                           Net charge
       1     O        1          6.257242                             -0.257242
       2     H        2          0.875434                              0.124566
       3     H        2          0.867324                              0.132676
 # Total charge                              8.000000                 -0.000000

 !-----------------------------------------------------------------------------!

 !-----------------------------------------------------------------------------!
                           Hirshfeld Charges

  #Atom  Element  Kind  Ref Charge     Population                    Net charge
      1       O      1       6.000          7.112                        -1.112
      2       H      2       1.000          0.440                         0.560
      3       H      2       1.000          0.437                         0.563

  Total Charge                                                            0.011
 !-----------------------------------------------------------------------------!

 ENERGY| Total FORCE_EVAL ( QS ) energy [hartree]            -17.219160242341971

 FORCES| Atomic forces [hartree/bohr]
 FORCES|   Atom     x               y               z               |f|
 FORCES|      1 -4.68691814E-04 -1.06104909E-02 -1.56362053E-02   1.89021984E-02
 FORCES|      2  2.07092766E-05  4.22284614E-04  1.17179492E-03   1.24573533E-03
 FORCES|      3  2.06731581E-04  1.00622393E-02  9.50534176E-03   1.38435155E-02
 FORCES| Sum    -2.41250957E-04 -1.25966898E-04 -4.95906867E-03
 FORCES| Total atomic force                                       4.96653116E-03

 MD_VEL| Centre of mass motion (COM)
 MD_VEL| VCOM [a.u.]             -0.0000001506    -0.0000000822    -0.0000059843

 MD| ***************************************************************************
 MD| Step number                                                               2
 MD| Time [fs]                                                          1.000000
 MD| Conserved quantity [hartree]                            -0.172179672672E+02
 MD| ---------------------------------------------------------------------------
 MD|                                          Instantaneous             Averages
 MD| CPU time per MD step [s]                      1.302197             2.041405
 MD| Energy drift per atom [K]           0.715261353069E+00   0.357630676535E+00
 MD| Potential energy [hartree]         -0.172191602423E+02  -0.172192480527E+02
 MD| Kinetic energy [hartree]            0.983745807423E-03   0.113801194678E-02
 MD| Temperature [K]                             207.094657           239.570215
 MD| ***************************************************************************
 MD| Estimated peak process memory after this step [MiB]                     466

 -------------------------
 MD STEP:            3 / 5
 -------------------------

 Parameters for the always stable predictor-corrector (ASPC) method:

  ASPC order: 1

  B(1) =   2.500000
  B(2) =  -2.000000
  B(3) =   0.500000

 Extrapolation method: ASPC

 Number of electrons:                                                          8
 Number of occupied orbitals:                                                  4
 Number of molecular orbitals:                                                 4

 Number of orbital functions:                                                 23
 Number of independent orbital functions:                                     23


 SCF WAVEFUNCTION OPTIMIZATION

  Step     Update method      Time    Convergence         Total energy    Change
  ------------------------------------------------------------------------------
     1 P_Mix/Diag. 0.40E+00    0.2     0.00062561       -17.2189450027 -1.72E+01
     2 P_Mix/Diag. 0.40E+00    0.2     0.00034875       -17.2189451276 -1.25E-07
     3 DIIS/Diag.  0.43E-04    0.2     0.00021302       -17.2189452056 -7.79E-08
     4 DIIS/Diag.  0.28E-04    0.2     0.00000513       -17.2189453214 -1.16E-07

  *** SCF run converged in     4 steps ***


  Electronic density on regular grids:         -7.9999998641        0.0000001359
  Core density on regular grids:                7.9999999997       -0.0000000003
  Total charge density on r-space grids:        0.0000001356
  Total charge density g-space grids:           0.0000001356

  Overlap energy of the core charge distribution:               0.00000002915677
  Self energy of the core charge distribution:                -44.34715499673765
  Core Hamiltonian energy:                                     12.84144609846028
  Hartree energy:                                              18.49745156684045
  Exchange-correlation energy:                                 -4.21068801913500

  Total energy:                                               -17.21894532141514

 !-----------------------------------------------------------------------------!
                     Mulliken Population Analysis

 #  Atom  Element  Kind  Atomic population                           Net charge
       1     O        1          6.261015                             -0.261015
       2     H        2          0.874899                              0.125101
       3     H        2          0.864086                              0.135914
 # Total charge                              8.000000                 -0.000000

 !-----------------------------------------------------------------------------!

 !-----------------------------------------------------------------------------!
                           Hirshfeld Charges

  #Atom  Element  Kind  Ref Charge     Population                    Net charge
      1       O      1       6.000          7.113                        -1.113
      2       H      2       1.000          0.440                         0.560
      3       H      2       1.000          0.436                         0.564

  Total Charge                                                            0.011
 !-----------------------------------------------------------------------------!

 ENERGY| Total FORCE_EVAL ( QS ) energy [hartree]            -17.218945321201133

 FORCES| Atomic forces [hartree/bohr]
 FORCES|   Atom     x               y               z               |f|
 FORCES|      1 -8.09262646E-04 -1.37806143E-02 -2.00030220E-02   2.43039323E-02
 FORCES|      2  3.50339959E-05 -2.61573627E-05  2.05741561E-03   2.05788012E-03
 FORCES|      3  4.25236977E-04  1.36471413E-02  1.29701335E-02   1.88321442E-02
 FORCES| Sum    -3.48991674E-04 -1.59630354E-04 -4.97547295E-03
 FORCES| Total atomic force                                       4.99025131E-03

 MD_VEL| Centre of mass motion (COM)
 MD_VEL| VCOM [a.u.]             -0.0000003382    -0.0000001731    -0.0000091803

 MD| ***************************************************************************
 MD| Step number                                                               3
 MD| Time [fs]                                                          1.500000
 MD| Conserved quantity [hartree]                            -0.172179619290E+02
 MD| ---------------------------------------------------------------------------
 MD|                                          Instantaneous             Averages
 MD| CPU time per MD step [s]                      0.876575             1.653128
 MD| Energy drift per atom [K]           0.127714821580E+01   0.664136522957E+00
 MD| Potential energy [hartree]         -0.172189453212E+02  -0.172191471422E+02
 MD| Kinetic energy [hartree]            0.795063834353E-03   0.102369590931E-02
 MD| Temperature [K]                             167.374002           215.504810
 MD| ***************************************************************************
 MD| Estimated peak process memory after this step [MiB]                     466

 -------------------------
 MD STEP:            4 / 5
 -------------------------

 Parameters for the always stable predictor-corrector (ASPC) method:

  ASPC order: 2

  B(1) =   2.800000
  B(2) =  -2.800000
  B(3) =   1.200000
  B(4) =  -0.200000

 Extrapolation method: ASPC

 Number of electrons:                                                          8
 Number of occupied orbitals:                                                  4
 Number of molecular orbitals:                                                 4

 Number of orbital functions:                                                 23
 Number of independent orbital functions:                                     23


 SCF WAVEFUNCTION OPTIMIZATION

  Step     Update method      Time    Convergence         Total energy    Change
  ------------------------------------------------------------------------------
     1 P_Mix/Diag. 0.40E+00    0.1     0.00109987       -17.2187883755 -1.72E+01
     2 P_Mix/Diag. 0.40E+00    0.2     0.00061630       -17.2187886697 -2.94E-07
     3 DIIS/Diag.  0.71E-04    0.1     0.00035498       -17.2187888568 -1.87E-07
     4 DIIS/Diag.  0.32E-04    0.1     0.00003002       -17.2187891365 -2.80E-07
     5 DIIS/Diag.  0.91E-04    0.1     0.00002777       -17.2187891341  2.37E-09
     6 DIIS/Diag.  0.36E-04    0.2     0.00001818       -17.2187891364 -2.26E-09
     7 DIIS/Diag.  0.35E-06    0.2     0.00000020       -17.2187891368 -4.33E-10

  *** SCF run converged in     7 steps ***


  Electronic density on regular grids:         -7.9999998654        0.0000001346
  Core density on regular grids:                7.9999999997       -0.0000000003
  Total charge density on r-space grids:        0.0000001344
  Total charge density g-space grids:           0.0000001344

  Overlap energy of the core charge distribution:               0.00000002729318
  Self energy of the core charge distribution:                -44.34715499673765
  Core Hamiltonian energy:                                     12.83464805628546
  Hartree energy:                                              18.50249573563101
  Exchange-correlation energy:                                 -4.20877795926602

  Total energy:                                               -17.21878913679403

 !-----------------------------------------------------------------------------!
                     Mulliken Population Analysis

 #  Atom  Element  Kind  Atomic population                           Net charge
       1     O        1          6.263168                             -0.263168
       2     H        2          0.874494                              0.125506
       3     H        2          0.862338                              0.137662
 # Total charge                              8.000000                 -0.000000

 !-----------------------------------------------------------------------------!

 !-----------------------------------------------------------------------------!
                           Hirshfeld Charges

  #Atom  Element  Kind  Ref Charge     Population                    Net charge
      1       O      1       6.000          7.113                        -1.113
      2       H      2       1.000          0.440                         0.560
      3       H      2       1.000          0.436                         0.564

  Total Charge                                                            0.011
 !-----------------------------------------------------------------------------!

 ENERGY| Total FORCE_EVAL ( QS ) energy [hartree]            -17.218789136794062

 FORCES| Atomic forces [hartree/bohr]
 FORCES|   Atom     x               y               z               |f|
 FORCES|      1 -1.13210617E-03 -1.51962691E-02 -2.27799082E-02   2.74067962E-02
 FORCES|      2  5.18481301E-05 -3.44285208E-04  2.84113851E-03   2.86239210E-03
 FORCES|      3  6.37624210E-04  1.53709632E-02  1.49617905E-02   2.14599220E-02
 FORCES| Sum    -4.42633834E-04 -1.69591072E-04 -4.97697923E-03
 FORCES| Total atomic force                                       4.99950079E-03

 MD_VEL| Centre of mass motion (COM)
 MD_VEL| VCOM [a.u.]             -0.0000005783    -0.0000002716    -0.0000119835

 MD| ***************************************************************************
 MD| Step number                                                               4
 MD| Time [fs]                                                          2.000000
 MD| Conserved quantity [hartree]                            -0.172179584541E+02
 MD| ---------------------------------------------------------------------------
 MD|                                          Instantaneous             Averages
 MD| CPU time per MD step [s]                      1.365848             1.581308
 MD| Energy drift per atom [K]           0.164290348423E+01   0.908828263275E+00
 MD| Potential energy [hartree]         -0.172187891368E+02  -0.172190576408E+02
 MD| Kinetic energy [hartree]            0.567172990594E-03   0.909565179629E-03
 MD| Temperature [K]                             119.399234           191.478416
 MD| ***************************************************************************
 MD| Estimated peak process memory after this step [MiB]                     468

 -------------------------
 MD STEP:            5 / 5
 -------------------------

 Parameters for the always stable predictor-corrector (ASPC) method:

  ASPC order: 3

  B(1) =   3.000000
  B(2) =  -3.428571
  B(3) =   1.928571
  B(4) =  -0.571429
  B(5) =   0.071429

 Extrapolation method: ASPC

 Number of electrons:                                                          8
 Number of occupied orbitals:                                                  4
 Number of molecular orbitals:                                                 4

 Number of orbital functions:                                                 23
 Number of independent orbital functions:                                     23


 SCF WAVEFUNCTION OPTIMIZATION

  Step     Update method      Time    Convergence         Total energy    Change
  ------------------------------------------------------------------------------
     1 P_Mix/Diag. 0.40E+00    0.2     0.00043592       -17.2187370009 -1.72E+01
     2 P_Mix/Diag. 0.40E+00    0.2     0.00025768       -17.2187370746 -7.36E-08
     3 DIIS/Diag.  0.37E-04    0.2     0.00015308       -17.2187371187 -4.42E-08
     4 DIIS/Diag.  0.28E-04    0.2     0.00003846       -17.2187371836 -6.49E-08
     5 DIIS/Diag.  0.68E-04    0.2     0.00004013       -17.2187371824  1.16E-09
     6 DIIS/Diag.  0.35E-04    0.2     0.00001401       -17.2187371835 -1.02E-09
     7 DIIS/Diag.  0.35E-06    0.2     0.00000017       -17.2187371838 -3.78E-10

  *** SCF run converged in     7 steps ***


  Electronic density on regular grids:         -7.9999998659        0.0000001341
  Core density on regular grids:                7.9999999997       -0.0000000003
  Total charge density on r-space grids:        0.0000001338
  Total charge density g-space grids:           0.0000001338

  Overlap energy of the core charge distribution:               0.00000002658739
  Self energy of the core charge distribution:                -44.34715499673765
  Core Hamiltonian energy:                                     12.83244663927583
  Hartree energy:                                              18.50416035270007
  Exchange-correlation energy:                                 -4.20818920567340

  Total energy:                                               -17.21873718384775

 !-----------------------------------------------------------------------------!
                     Mulliken Population Analysis

 #  Atom  Element  Kind  Atomic population                           Net charge
       1     O        1          6.263580                             -0.263580
       2     H        2          0.874252                              0.125748
       3     H        2          0.862168                              0.137832
 # Total charge                              8.000000                 -0.000000

 !-----------------------------------------------------------------------------!

 !-----------------------------------------------------------------------------!
                           Hirshfeld Charges

  #Atom  Element  Kind  Ref Charge     Population                    Net charge
      1       O      1       6.000          7.113                        -1.113
      2       H      2       1.000          0.440                         0.560
      3       H      2       1.000          0.436                         0.564

  Total Charge                                                            0.011
 !-----------------------------------------------------------------------------!

 ENERGY| Total FORCE_EVAL ( QS ) energy [hartree]            -17.218737183847797

 FORCES| Atomic forces [hartree/bohr]
 FORCES|   Atom     x               y               z               |f|
 FORCES|      1 -1.40661428E-03 -1.49781720E-02 -2.40259587E-02   2.83473260E-02
 FORCES|      2  7.42801613E-05 -4.81354121E-04  3.51432635E-03   3.54791615E-03
 FORCES|      3  8.01001795E-04  1.53023748E-02  1.55431005E-02   2.18264118E-02
 FORCES| Sum    -5.31332320E-04 -1.57151273E-04 -4.96853179E-03
 FORCES| Total atomic force                                       4.99933182E-03

 MD_VEL| Centre of mass motion (COM)
 MD_VEL| VCOM [a.u.]             -0.0000008818    -0.0000003723    -0.0000149972

 MD| ***************************************************************************
 MD| Step number                                                               5
 MD| Time [fs]                                                          2.500000
 MD| Conserved quantity [hartree]                            -0.172179577788E+02
 MD| ---------------------------------------------------------------------------
 MD|                                          Instantaneous             Averages
 MD| CPU time per MD step [s]                      1.549876             1.575022
 MD| Energy drift per atom [K]           0.171399178687E+01   0.106986096799E+01
 MD| Potential energy [hartree]         -0.172187371838E+02  -0.172189935494E+02
 MD| Kinetic energy [hartree]            0.498464007164E-03   0.827344945136E-03
 MD| Temperature [K]                             104.934864           174.169706
 MD| ***************************************************************************
 MD| Estimated peak process memory after this step [MiB]                     468

 -------------------------------------------------------------------------------
 -                                                                             -
 -                                DBCSR STATISTICS                             -
 -                                                                             -
 -------------------------------------------------------------------------------
 COUNTER                                    TOTAL       BLAS       SMM       ACC
 flops     5 x     4 x     5                 8000     100.0%      0.0%      0.0%     
 flops    13 x     4 x     5                10400     100.0%      0.0%      0.0%     
 flops     5 x     4 x    13                10400     100.0%      0.0%      0.0%     
 flops    13 x     4 x    13                13520     100.0%      0.0%      0.0%     
 flops    13 x     5 x     4                27560     100.0%      0.0%      0.0%     
 flops     5 x    13 x     4                27560     100.0%      0.0%      0.0%     
 flops     5 x     5 x     4                31800     100.0%      0.0%      0.0%     
 flops    13 x    13 x     4                71656     100.0%      0.0%      0.0%     
 flops inhomo. stacks                           0       0.0%      0.0%      0.0%
 flops total                       200.896000E+03     100.0%      0.0%      0.0%
 flops max/rank                    200.896000E+03     100.0%      0.0%      0.0%
 matmuls inhomo. stacks                         0       0.0%      0.0%      0.0%
 matmuls total                                408     100.0%      0.0%      0.0%
 number of processed stacks                   252     100.0%      0.0%      0.0%
 average stack size                                     1.6       0.0       0.0
 marketing flops                   266.616000E+03
 -------------------------------------------------------------------------------
 # multiplications                             63
 max memory usage/rank               1.776353E+09
 # max total images/rank                        1
 # max 3D layers                                1
 # MPI messages exchanged                       0
 -------------------------------------------------------------------------------
 -                                                                             -
 -                      DBCSR MESSAGE PASSING PERFORMANCE                      -
 -                                                                             -
 -------------------------------------------------------------------------------
 ROUTINE             CALLS      AVE VOLUME [Bytes]
 MP_Bcast                9                     12.
 MP_Allreduce          330                     10.
 MP_Alltoall          1737                   1971.
 MP_ISend              252                     70.
 MP_IRecv              252                     70.
 -------------------------------------------------------------------------------

 -------------------------------------------------------------------------------
 -                                                                             -
 -                                GRID STATISTICS                              -
 -                                                                             -
 -------------------------------------------------------------------------------
 LP    KERNEL             BACKEND                              COUNT     PERCENT
 2     collocate ortho    CPU                                   3552      24.71%
 2     integrate ortho    CPU                                   3108      21.62%
 3     integrate ortho    CPU                                   2544      17.70%
 3     collocate ortho    CPU                                   2400      16.69%
 4     integrate ortho    CPU                                   1350       9.39%
 4     collocate ortho    CPU                                   1200       8.35%
 5     integrate ortho    CPU                                    150       1.04%
 0     collocate general  CPU                                     36       0.25%
 0     integrate general  CPU                                     18       0.13%
 1     integrate general  CPU                                     18       0.13%
 -------------------------------------------------------------------------------

 -------------------------------------------------------------------------------
 -                                                                             -
 -                          OFFLOAD MEMPOOL STATISTICS                         -
 -                                                                             -
 -------------------------------------------------------------------------------
 Memory consumption                Number of allocations  Used [MiB]  Size [MiB]
 Host                                                  6           2   130574512
 -------------------------------------------------------------------------------

 MEMORY| Estimated peak process memory [MiB]                                 468

 -------------------------------------------------------------------------------
 ----                             MULTIGRID INFO                            ----
 -------------------------------------------------------------------------------
 count for grid        1:           4836          cutoff [a.u.]          140.00
 count for grid        2:           1492          cutoff [a.u.]           46.67
 count for grid        3:            896          cutoff [a.u.]           15.56
 count for grid        4:            230          cutoff [a.u.]            5.19
 total gridlevel count  :           7454

 -------------------------------------------------------------------------------
 -                                                                             -
 -                         MESSAGE PASSING PERFORMANCE                         -
 -                                                                             -
 -------------------------------------------------------------------------------

 ROUTINE             CALLS      AVE VOLUME [Bytes]
 MP_Group                5
 MP_Bcast               90                     88.
 MP_Allreduce          819                     20.
 MP_Sync                46
 MP_comm_split          42
 -------------------------------------------------------------------------------


 -------------------------------------------------------------------------------
 -                                                                             -
 -                           R E F E R E N C E S                               -
 -                                                                             -
 -------------------------------------------------------------------------------
 
 CP2K version 2026.2, the CP2K developers group (2026).
 CP2K is freely available from https://www.cp2k.org/ .
 
 M. Iannuzzi, J. Wilhelm, F. Stein, A. Bussy, H. Elgabarty, D. Golze, A. Hehn, 
 M. Graml, S. Marek, B. Sertcan Gökmen, C. Schran, H. Forbert, R. Z. 
 Khaliullin, A. Kozhevnikov, M. Taillefumier, R. Meli, V. V. Rybkin, M. Brehm, 
 R. Schade, O. Schütt, J. V. Pototschnig, H. Mirhosseini, A. Knüpfer, D. Marx, 
 M. Krack, J. Hutter, T. D. Kühne.
 J. Phys. Chem. B 130, 1237-1310 (2026).
 The CP2K Program Package Made Simple.
 https://doi.org/10.1021/acs.jpcb.5c05851

 T. D. Kühne, M. Iannuzzi, M. Del Ben, V. V. Rybkin, P. Seewald, F. Stein, T. 
 Laino, R. Z. Khaliullin, O. Schütt, F. Schiffmann, D. Golze, J. Wilhelm, S. 
 Chulkov, M. H. Bani-Hashemian, V. Weber, U. Borstnik, M. Taillefumier, A. S. 
 Jakobovits, A. Lazzaro, H. Pabst, T. Müller, R. Schade, M. Guidon, S. 
 Andermatt, N. Holmberg, G. K. Schenter, A. Hehn, A. Bussy, F. Belleflamme, G. 
 Tabacchi, A. Glöß, M. Lass, I. Bethune, C. J. Mundy, C. Plessl, M. Watkins, 
 J. VandeVondele, M. Krack, J. Hutter.
 J. Chem. Phys. 152, 194103 (2020).
 CP2K: An electronic structure and molecular dynamics software package - 
 Quickstep: Efficient and accurate electronic structure calculations.
 https://doi.org/10.1063/5.0007045

 O. Schuett, P. Messmer, J. Hutter, J. VandeVondele.
 Electronic Structure Calculations on Graphics Processing Units, 173-190 (2016).
 GPU-Accelerated Sparse Matrix-Matrix Multiplication for Linear Scaling Density 
 Functional Theory.
 https://doi.org/10.1002/9781118670712.ch8

 A. Heinecke, G. Henry, M. Hutchinson, H. Pabst.
 Proceedings of Intl. Supercomputing Conference, 981-991 (2016).
 LIBXSMM: Accelerating Small Matrix Multiplications by Runtime Code Generation.
 https://doi.org/10.1109/SC.2016.83

 U. Borstnik, J. VandeVondele, V. Weber, J. Hutter.
 Parallel Comput. 40, 47-58 (2014).
 Sparse matrix multiplication: The distributed block-compressed sparse row 
 library.
 https://doi.org/10.1016/j.parco.2014.03.012

 A. Marek, V. Blum, R. Johanni, V. Havu, B. Lang, T. Auckenthaler, A. Heinecke, 
 H. Bungartz, H. Lederer.
 J. Phys. Condens. Matter 26, 213201 (2014).
 The ELPA library: scalable parallel eigenvalue solutions for electronic 
 structure theory and computational science.
 https://doi.org/10.1088/0953-8984/26/21/213201

 G. Bussi, D. Donadio, M. Parrinello.
 J. Chem. Phys. 126, 014101 (2007).
 Canonical sampling through velocity rescaling.
 https://doi.org/10.1063/1.2408420

 J. VandeVondele, J. Hutter.
 J. Chem. Phys. 127, 114105 (2007).
 Gaussian basis sets for accurate calculations on molecular systems in gas and 
 condensed phases.
 https://doi.org/10.1063/1.2770708

 T. D. Kühne, M. Krack, F. R. Mohamed, M. Parrinello.
 Phys. Rev. Lett. 98, 066401 (2007).
 Efficient and accurate Car-Parrinello-like approach to Born-Oppenheimer 
 molecular dynamics.
 https://doi.org/10.1103/PhysRevLett.98.066401

 J. VandeVondele, M. Krack, F. Mohamed, M. Parrinello, T. Chassaing, J. Hutter.
 Comput. Phys. Commun. 167, 103-128 (2005).
 QUICKSTEP: Fast and accurate density functional calculations using a mixed 
 Gaussian and plane waves approach.
 https://doi.org/10.1016/j.cpc.2004.12.014

 M. Krack.
 Theor. Chem. Acc. 114, 145-152 (2005).
 Pseudopotentials for H to Kr optimized for gradient-corrected 
 exchange-correlation functionals.
 https://doi.org/10.1007/s00214-005-0655-y

 M. Frigo, S. G. Johnson.
 Proc. IEEE 93, 216-231 (2005).
 The design and implementation of FFTW3.
 https://doi.org/10.1109/JPROC.2004.840301

 J. Kolafa.
 J. Comput. Chem. 25, 335-342 (2004).
 Time-reversible always stable predictor-corrector method for molecular dynamics 
 of polarizable molecules.
 https://doi.org/10.1002/jcc.10385

 G. J. Martyna, M. E. Tuckerman.
 J. Chem. Phys. 110, 2810-2821 (1999).
 A reciprocal space based method for treating long range interactions in ab 
 initio and force-field-based calculations in clusters.
 https://doi.org/10.1063/1.477923

 C. Hartwigsen, S. Goedecker, J. Hutter.
 Phys. Rev. B 58, 3641-3662 (1998).
 Relativistic separable dual-space Gaussian pseudopotentials from H to Rn.
 https://doi.org/10.1103/PhysRevB.58.3641

 G. Lippert, J. Hutter, M. Parrinello.
 Mol. Phys. 92, 477-487 (1997).
 A hybrid Gaussian and plane wave density functional scheme.
 https://doi.org/10.1080/002689797170220

 S. Goedecker, M. Teter, J. Hutter.
 Phys. Rev. B 54, 1703-1710 (1996).
 Separable dual-space Gaussian pseudopotentials.
 https://doi.org/10.1103/PhysRevB.54.1703

 J. P. Perdew, K. Burke, M. Ernzerhof.
 Phys. Rev. Lett. 77, 3865-3868 (1996).
 Generalized gradient approximation made simple.
 https://doi.org/10.1103/PhysRevLett.77.3865


 -------------------------------------------------------------------------------
 -                                                                             -
 -                                T I M I N G                                  -
 -                                                                             -
 -------------------------------------------------------------------------------
 SUBROUTINE                       CALLS  ASD         SELF TIME        TOTAL TIME
                                MAXIMUM       AVERAGE  MAXIMUM  AVERAGE  MAXIMUM
 CP2K                                 1  1.0    0.009    0.009    8.096    8.096
 qs_mol_dyn_low                       1  2.0    0.004    0.004    7.881    7.881
 qs_forces                            6  3.8    0.001    0.001    7.854    7.854
 qs_energies                          6  4.8    0.000    0.000    6.972    6.972
 rebuild_ks_matrix                   48  8.4    0.000    0.000    6.769    6.769
 qs_ks_build_kohn_sham_matrix        48  9.4    0.007    0.007    6.769    6.769
 scf_env_do_scf                       6  5.8    0.000    0.000    6.727    6.727
 scf_env_do_scf_inner_loop           42  6.8    0.005    0.005    6.726    6.726
 velocity_verlet                      5  3.0    0.002    0.002    6.226    6.226
 qs_ks_update_qs_env                 42  7.8    0.000    0.000    5.898    5.898
 qs_vxc_create                       48 10.4    0.001    0.001    5.492    5.492
 xc_vxc_pw_create                    48 11.4    0.118    0.118    5.491    5.491
 xc_rho_set_and_dset_create          48 12.4    0.067    0.067    4.098    4.098
 xc_functional_eval                  48 13.4    0.000    0.000    3.185    3.185
 pbe_lda_eval                        48 14.4    3.184    3.184    3.184    3.184
 fft_wrap_pw1pw2                    823 12.8    0.014    0.014    2.754    2.754
 fft_wrap_pw1pw2_140                534 14.2    0.097    0.097    2.542    2.542
 xc_pw_derive                       288 13.4    0.004    0.004    1.728    1.728
 fft3d_s                            824 14.8    1.324    1.324    1.342    1.342
 xc_pw_divergence                    48 12.4    0.002    0.002    1.230    1.230
 qs_ks_update_qs_env_forces           6  4.8    0.000    0.000    0.874    0.874
 qs_rho_update_rho_low               48  7.9    0.000    0.000    0.857    0.857
 calculate_rho_elec                  48  8.9    0.074    0.074    0.857    0.857
 density_rs2pw                       48  9.9    0.002    0.002    0.637    0.637
 pw_gather_s                        391 14.5    0.593    0.593    0.593    0.593
 sum_up_and_integrate                48 10.4    0.001    0.001    0.541    0.541
 integrate_v_rspace                  48 11.4    0.002    0.002    0.519    0.519
 pw_scatter_s                       432 15.1    0.512    0.512    0.512    0.512
 pw_poisson_solve                    48 10.4    0.001    0.001    0.464    0.464
 pw_derive                          432 13.7    0.402    0.402    0.402    0.402
 potential_pw2rs                     48 12.4    0.004    0.004    0.369    0.369
 pw_copy                            720 12.9    0.266    0.266    0.266    0.266
 pw_poisson_set                      49 11.3    0.002    0.002    0.207    0.207
 qs_init_subsys                       1  2.0    0.001    0.001    0.201    0.201
 qs_env_setup                         1  3.0    0.000    0.000    0.197    0.197
 qs_env_rebuild_pw_env               13  5.2    0.000    0.000    0.197    0.197
 pw_env_rebuild                       1  5.0    0.000    0.000    0.197    0.197
 pw_grid_setup                        5  6.0    0.000    0.000    0.196    0.196
 pw_grid_setup_internal               5  7.0    0.004    0.004    0.195    0.195
 pw_grid_sort                         5  8.0    0.132    0.132    0.174    0.174
 pw_axpy                            481 11.9    0.164    0.164    0.164    0.164
 -------------------------------------------------------------------------------

 The number of warnings for this run is : 0
 
 -------------------------------------------------------------------------------
  **** **** ******  **  PROGRAM ENDED AT                 2026-09-12 02:14:04.025
 ***** ** ***  *** **   PROGRAM RAN ON                           <host>
 **    ****   ******    PROGRAM RAN BY                                     <user>
 ***** **    ** ** **   PROGRAM PROCESS ID                                 62254
  **** **  *******  **  PROGRAM STOPPED IN /home/<user>/adit/examples/cp2
                                           k_h2o_md_generated
