8
Properties=species:S:1:pos:R:3 pbc="F F F"
C        0.00000000       0.00000000       0.76220900
C        0.00000000       0.00000000      -0.76220900
H        0.00000000       1.01895700       1.15722900
H       -0.88244300      -0.50947900       1.15722900
H        0.88244300      -0.50947900       1.15722900
H        0.00000000      -1.01895700      -1.15722900
H       -0.88244300       0.50947900      -1.15722900
H        0.88244300       0.50947900      -1.15722900
8
Properties=species:S:1:pos:R:3 pbc="F F F"
C       -0.00000000      -0.00000000       0.76444571
C        0.00000000       0.00000000      -0.73511935
H        0.00003257       1.01919890       1.15789433
H       -0.88266878      -0.50957175       1.15789433
H        0.88263621      -0.50962816       1.15789433
H       -0.16146161      -0.96449699      -1.16766979
H       -0.75454832       0.62207886      -1.16766978
H        0.91601008       0.34241904      -1.16766978
8
Properties=species:S:1:pos:R:3 pbc="F F F"
C       -0.00000000      -0.00000000       0.76610239
C       -0.00000000      -0.00000000      -0.71266103
H        0.00006164       1.01936166       1.15834397
H       -0.88282426      -0.50962795       1.15834397
H        0.88276263      -0.50973471       1.15834397
H       -0.32396940      -0.90512275      -1.17615776
H       -0.62187472       0.73312763      -1.17615775
H        0.94584443       0.17199596      -1.17615775
8
Properties=species:S:1:pos:R:3 pbc="F F F"
C       -0.00000000      -0.00000000       0.76672903
C       -0.00000000      -0.00000001      -0.70464403
H        0.00006551       1.01941062       1.15852849
H       -0.88286860      -0.50964907       1.15852849
H        0.88280309      -0.50976255       1.15852849
H       -0.47858876      -0.82893226      -1.17922350
H       -0.47858205       0.82893668      -1.17922349
H        0.95717125      -0.00000366      -1.17922349
8
Properties=species:S:1:pos:R:3 pbc="F F F"
C       -0.00000000      -0.00000000       0.76610130
C       -0.00000000      -0.00000000      -0.71266441
H        0.00004475       1.01933748       1.15840480
H       -0.88279488      -0.50963048       1.15840480
H        0.88275013      -0.50970799       1.15840480
H       -0.62186657      -0.73311369      -1.17621711
H       -0.32396174       0.90510962      -1.17621709
H        0.94582888      -0.17199525      -1.17621709
8
Properties=species:S:1:pos:R:3 pbc="F F F"
C       -0.00000000      -0.00000000       0.76444444
C        0.00000000       0.00000000      -0.73512286
H        0.00001591       1.01917022       1.15796426
H       -0.88263561      -0.50957183       1.15796426
H        0.88261970      -0.50959939       1.15796426
H       -0.75453807      -0.62206107      -1.16773812
H       -0.16145149       0.96448021      -1.16773811
H        0.91599028      -0.34241855      -1.16773811
8
Properties=species:S:1:pos:R:3 pbc="F F F"
C        0.00000000       0.00000000       0.76220900
C        0.00000000       0.00000000      -0.76220900
H        0.00000000       1.01895700       1.15722900
H       -0.88244300      -0.50947900       1.15722900
H        0.88244300      -0.50947900       1.15722900
H       -0.88244265      -0.50947850      -1.15722900
H        0.00000026       1.01895756      -1.15722900
H        0.88244326      -0.50947856      -1.15722900
