9

C      -1.021380692488487     -0.010202505279612     -0.084044742270141
C       0.440006950329910      0.092813857419929      0.296881469518834
O       1.235715766169984     -0.297635215244086     -0.812195103286396
H      -1.664110371674630      0.284298503678782      0.750245075764733
H      -1.242155605975850      0.631014951997975     -0.943811203233337
H      -1.272005224582223     -1.034591126692625     -0.378855361915301
H       0.664174130493504     -0.566319426235465      1.140891625527253
H       0.694425584009935      1.121721637497255      0.568322087288973
H       2.165329463717881     -0.221100677142363     -0.537433847394857
