9
 energy: -11.391867234796 gnorm: 0.000401872315 xtb: 6.7.1 (edcfbbe)
C           -1.02347331003271       -0.01272383211626       -0.09158949170842
C            0.44254560826521        0.09352054800760        0.29909912321117
O            1.22861816292338       -0.29596220730484       -0.80763770045897
H           -1.65469677622716        0.28142655664243        0.74227255241711
H           -1.22425140834625        0.63360037068004       -0.94142797524842
H           -1.25416908500885       -1.03576829906554       -0.37519437791580
H            0.64746745408703       -0.55887765068157        1.16093480309584
H            0.67770902747027        1.12854635212603        0.58857602724603
H            2.16025032686911       -0.23376183828809       -0.57503296063878
